<?xml version="1.0" encoding="ISO-8859-1"?>
<modeling>
 <generator>
  <i name="program" type="string">vasp </i>
  <i name="version" type="string">6.4.2  </i>
  <i name="subversion" type="string">20Jul23 (build Aug 29 2026 11:11:35) complex                          parallel </i>
  <i name="platform" type="string">LinuxGNU </i>
  <i name="date" type="string">2026 08 31 </i>
  <i name="time" type="string">15:34:34 </i>
 </generator>
 <incar>
  <i type="string" name="SYSTEM">PDA@CeO2 production-baseline</i>
  <i type="string" name="PREC">Accurate</i>
  <i type="string" name="ALGO">Normal</i>
  <i type="logical" name="ADDGRID"> T  </i>
  <i type="int" name="ISPIN">     2</i>
  <i type="int" name="NELM">   160</i>
  <i type="int" name="IBRION">     2</i>
  <i name="EDIFF">      0.00000100</i>
  <i name="EDIFFG">     -0.02000000</i>
  <i type="int" name="NSW">   200</i>
  <i type="int" name="ISIF">     2</i>
  <i type="int" name="ISYM">     0</i>
  <i name="ENCUT">    520.00000000</i>
  <v name="MAGMOM">      1.00000000      1.00000000      1.00000000      1.00000000      1.00000000      1.00000000      1.00000000      1.00000000      1.00000000      1.00000000      1.00000000      1.00000000      1.00000000      1.00000000      1.00000000      1.00000000      1.00000000      1.00000000      1.00000000      1.00000000
      1.00000000      1.00000000      1.00000000      1.00000000      1.00000000      1.00000000      1.00000000      1.00000000      1.00000000      1.00000000      1.00000000      1.00000000      1.00000000      1.00000000      1.00000000      1.00000000      1.00000000      1.00000000      1.00000000      1.00000000
      1.00000000      1.00000000      1.00000000      1.00000000      1.00000000      1.00000000      1.00000000      1.00000000      1.00000000      1.00000000      1.00000000      1.00000000      1.00000000      1.00000000      1.00000000      1.00000000      1.00000000      1.00000000      1.00000000      1.00000000
      1.00000000      1.00000000      1.00000000      1.00000000      1.00000000      1.00000000      1.00000000      1.00000000      1.00000000      1.00000000      1.00000000      1.00000000      1.00000000      1.00000000      1.00000000      1.00000000      1.00000000      1.00000000      1.00000000      1.00000000
      1.00000000      1.00000000      1.00000000      1.00000000      1.00000000      1.00000000      1.00000000      1.00000000      1.00000000      1.00000000      1.00000000      1.00000000      1.00000000      1.00000000      1.00000000      1.00000000      1.00000000      1.00000000      1.00000000      1.00000000
      1.00000000      1.00000000      1.00000000      1.00000000      1.00000000      1.00000000      1.00000000      1.00000000      0.00000000      0.00000000      0.00000000      0.00000000      0.00000000      0.00000000      0.00000000      0.00000000      0.00000000      0.00000000      0.00000000      0.00000000
      0.00000000      0.00000000      0.00000000      0.00000000      0.00000000      0.00000000      0.00000000      0.00000000      0.00000000      0.00000000      0.00000000      0.00000000      0.00000000      0.00000000      0.00000000      0.00000000      0.00000000      0.00000000      0.00000000      0.00000000
      0.00000000      0.00000000      0.00000000      0.00000000      0.00000000      0.00000000      0.00000000      0.00000000      0.00000000      0.00000000      0.00000000      0.00000000      0.00000000      0.00000000      0.00000000      0.00000000      0.00000000      0.00000000      0.00000000      0.00000000
      0.00000000      0.00000000      0.00000000      0.00000000      0.00000000      0.00000000      0.00000000      0.00000000      0.00000000      0.00000000      0.00000000      0.00000000      0.00000000      0.00000000      0.00000000      0.00000000      0.00000000      0.00000000      0.00000000      0.00000000
      0.00000000      0.00000000      0.00000000      0.00000000      0.00000000      0.00000000      0.00000000      0.00000000      0.00000000      0.00000000      0.00000000      0.00000000      0.00000000      0.00000000      0.00000000      0.00000000      0.00000000      0.00000000      0.00000000      0.00000000
      0.00000000      0.00000000      0.00000000      0.00000000      0.00000000      0.00000000      0.00000000      0.00000000      0.00000000      0.00000000      0.00000000      0.00000000      0.00000000      0.00000000      0.00000000      0.00000000      0.00000000      0.00000000      0.00000000      0.00000000
      0.00000000      0.00000000      0.00000000      0.00000000      0.00000000      0.00000000      0.00000000      0.00000000      0.00000000      0.00000000      0.00000000      0.00000000      0.00000000      0.00000000      0.00000000      0.00000000      0.00000000      0.00000000      0.00000000      0.00000000
      0.00000000      0.00000000      0.00000000      0.00000000      0.00000000      0.00000000      0.00000000      0.00000000      0.00000000      0.00000000      0.00000000      0.00000000      0.00000000      0.00000000      0.00000000      0.00000000      0.00000000      0.00000000      0.00000000      0.00000000
      0.00000000      0.00000000      0.00000000      0.00000000      0.00000000      0.00000000      0.00000000      0.00000000      0.00000000      0.00000000      0.00000000      0.00000000      0.00000000      0.00000000      0.00000000      0.00000000      0.00000000      0.00000000      0.00000000      0.00000000
      0.00000000      0.00000000      0.00000000      0.00000000      0.00000000      0.00000000      0.00000000      0.00000000      0.00000000      0.00000000      0.00000000      0.00000000      0.00000000      0.00000000      0.00000000      0.00000000      0.00000000      0.00000000      0.00000000      0.00000000
      0.00000000      0.00000000      0.00000000      0.00000000      0.00000000      0.00000000      0.00000000      0.00000000      0.00000000      0.00000000      0.00000000      0.00000000      0.00000000      0.00000000      0.00000000      0.00000000      0.00000000      0.00000000      0.00000000      0.00000000
      0.00000000      0.00000000      0.00000000      0.00000000      0.00000000      0.00000000      0.00000000      0.00000000      0.00000000      0.00000000      0.00000000      0.00000000      0.00000000      0.00000000      0.00000000      0.00000000      0.00000000      0.00000000      0.00000000      0.00000000
      0.00000000      0.00000000      0.00000000      0.00000000      0.00000000      0.00000000      0.00000000      0.00000000      0.00000000      0.00000000      0.00000000      0.00000000      0.00000000      0.00000000      0.00000000      0.00000000      0.00000000      0.00000000      0.00000000      0.00000000
      0.00000000      0.00000000      0.00000000      0.00000000      0.00000000      0.00000000      0.00000000      0.00000000      0.00000000      0.00000000      0.00000000      0.00000000      0.00000000      0.00000000      0.00000000      0.00000000      0.00000000      0.00000000      0.00000000      0.00000000
      0.00000000      0.00000000      0.00000000      0.00000000      0.00000000      0.00000000      0.00000000      0.00000000      0.00000000      0.00000000      0.00000000      0.00000000      0.00000000      0.00000000      0.00000000      0.00000000      0.00000000      0.00000000      0.00000000      0.00000000
      0.00000000      0.00000000      0.00000000      0.00000000      0.00000000      0.00000000</v>
  <i type="string" name="LREAL">Auto</i>
  <i type="int" name="ISMEAR">     0</i>
  <i name="SIGMA">      0.05000000</i>
  <i type="int" name="LMAXMIX">     6</i>
  <i type="logical" name="LWAVE"> F  </i>
  <i type="logical" name="LCHARG"> T  </i>
  <i type="int" name="LORBIT">    11</i>
  <i type="logical" name="LASPH"> T  </i>
  <i type="string" name="GGA">MK</i>
  <i name="PARAM1">      0.12340000</i>
  <i name="PARAM2">      1.00000000</i>
  <i type="logical" name="LUSE_VDW"> T  </i>
  <i name="AGGAC">      0.00000000</i>
  <i type="logical" name="LDAU"> T  </i>
  <i type="int" name="LDAUTYPE">     2</i>
  <v type="int" name="LDAUL">     3    -1    -1    -1    -1</v>
  <v name="LDAUU">      4.50000000      0.00000000      0.00000000      0.00000000      0.00000000</v>
  <v name="LDAUJ">      0.00000000      0.00000000      0.00000000      0.00000000      0.00000000</v>
  <i type="logical" name="LDIPOL"> T  </i>
  <i type="int" name="IDIPOL">     3</i>
 </incar>
 <primitive_cell>
  <structure name="primitive_cell" >
   <crystal>
    <varray name="basis" >
     <v>      22.95692876       0.00000000       0.00000000 </v>
     <v>      11.47846438      19.88128350       0.00000000 </v>
     <v>       0.00000000       0.00000000      44.59111634 </v>
    </varray>
    <i name="volume">  20351.97449704 </i>
    <varray name="rec_basis" >
     <v>       0.04355983      -0.02514928       0.00000000 </v>
     <v>       0.00000000       0.05029856       0.00000000 </v>
     <v>       0.00000000       0.00000000       0.02242599 </v>
    </varray>
   </crystal>
   <varray name="positions" >
    <v>       0.00000000       0.00000000       0.40366785 </v>
    <v>       1.00000000       0.16666667       0.40366785 </v>
    <v>       0.16666667       0.00000000       0.40366785 </v>
    <v>       0.16666667       0.16666667       0.40366785 </v>
    <v>       0.22222222       0.22222222       0.47372760 </v>
    <v>       0.22222222       0.05555556       0.47372760 </v>
    <v>       0.05555556       0.22222222       0.47372760 </v>
    <v>       0.05555556       0.05555556       0.47372760 </v>
    <v>       0.11111111       0.11111111       0.54378734 </v>
    <v>       0.11111111       0.27777778       0.54378734 </v>
    <v>       0.27777778       0.11111111       0.54378734 </v>
    <v>       0.27777778       0.27777778       0.54378734 </v>
    <v>       1.00000000       0.33333333       0.40366785 </v>
    <v>       1.00000000       0.50000000       0.40366785 </v>
    <v>       0.16666667       0.33333333       0.40366785 </v>
    <v>       0.16666667       0.50000000       0.40366785 </v>
    <v>       0.22222222       0.55555556       0.47372760 </v>
    <v>       0.22222222       0.38888889       0.47372760 </v>
    <v>       0.05555556       0.55555556       0.47372760 </v>
    <v>       0.05555556       0.38888889       0.47372760 </v>
    <v>       0.11111111       0.44444444       0.54378734 </v>
    <v>       0.11111111       0.61111111       0.54378734 </v>
    <v>       0.27777778       0.44444444       0.54378734 </v>
    <v>       0.27777778       0.61111111       0.54378734 </v>
    <v>       1.00000000       0.66666667       0.40366785 </v>
    <v>       1.00000000       0.83333333       0.40366785 </v>
    <v>       0.16666667       0.66666667       0.40366785 </v>
    <v>       0.16666667       0.83333333       0.40366785 </v>
    <v>       0.22222222       0.88888889       0.47372760 </v>
    <v>       0.22222222       0.72222222       0.47372760 </v>
    <v>       0.05555556       0.88888889       0.47372760 </v>
    <v>       0.05555556       0.72222222       0.47372760 </v>
    <v>       0.11111111       0.77777778       0.54378734 </v>
    <v>       0.11111111       0.94444444       0.54378734 </v>
    <v>       0.27777778       0.77777778       0.54378734 </v>
    <v>       0.27777778       0.94444444       0.54378734 </v>
    <v>       0.33333333       0.00000000       0.40366785 </v>
    <v>       0.33333333       0.16666667       0.40366785 </v>
    <v>       0.50000000       0.00000000       0.40366785 </v>
    <v>       0.50000000       0.16666667       0.40366785 </v>
    <v>       0.55555556       0.22222222       0.47372760 </v>
    <v>       0.55555556       0.05555556       0.47372760 </v>
    <v>       0.38888889       0.22222222       0.47372760 </v>
    <v>       0.38888889       0.05555556       0.47372760 </v>
    <v>       0.44444444       0.11111111       0.54378734 </v>
    <v>       0.44444444       0.27777778       0.54378734 </v>
    <v>       0.61111111       0.11111111       0.54378734 </v>
    <v>       0.61111111       0.27777778       0.54378734 </v>
    <v>       0.33333333       0.33333333       0.40366785 </v>
    <v>       0.33333333       0.50000000       0.40366785 </v>
    <v>       0.50000000       0.33333333       0.40366785 </v>
    <v>       0.50000000       0.50000000       0.40366785 </v>
    <v>       0.55555556       0.55555556       0.47372760 </v>
    <v>       0.55555556       0.38888889       0.47372760 </v>
    <v>       0.38888889       0.55555556       0.47372760 </v>
    <v>       0.38888889       0.38888889       0.47372760 </v>
    <v>       0.44444444       0.44444444       0.54378734 </v>
    <v>       0.44444444       0.61111111       0.54378734 </v>
    <v>       0.61111111       0.44444444       0.54378734 </v>
    <v>       0.61111111       0.61111111       0.54378734 </v>
    <v>       0.33333333       0.66666667       0.40366785 </v>
    <v>       0.33333333       0.83333333       0.40366785 </v>
    <v>       0.50000000       0.66666667       0.40366785 </v>
    <v>       0.50000000       0.83333333       0.40366785 </v>
    <v>       0.55555556       0.88888889       0.47372760 </v>
    <v>       0.55555556       0.72222222       0.47372760 </v>
    <v>       0.38888889       0.88888889       0.47372760 </v>
    <v>       0.38888889       0.72222222       0.47372760 </v>
    <v>       0.44444444       0.77777778       0.54378734 </v>
    <v>       0.44444444       0.94444444       0.54378734 </v>
    <v>       0.61111111       0.77777778       0.54378734 </v>
    <v>       0.61111111       0.94444444       0.54378734 </v>
    <v>       0.66666667       0.00000000       0.40366785 </v>
    <v>       0.66666667       0.16666667       0.40366785 </v>
    <v>       0.83333333       0.00000000       0.40366785 </v>
    <v>       0.83333333       0.16666667       0.40366785 </v>
    <v>       0.88888889       0.22222222       0.47372760 </v>
    <v>       0.88888889       0.05555556       0.47372760 </v>
    <v>       0.72222222       0.22222222       0.47372760 </v>
    <v>       0.72222222       0.05555556       0.47372760 </v>
    <v>       0.77777778       0.11111111       0.54378734 </v>
    <v>       0.77777778       0.27777778       0.54378734 </v>
    <v>       0.94444444       0.11111111       0.54378734 </v>
    <v>       0.94444444       0.27777778       0.54378734 </v>
    <v>       0.66666667       0.33333333       0.40366785 </v>
    <v>       0.66666667       0.50000000       0.40366785 </v>
    <v>       0.83333333       0.33333333       0.40366785 </v>
    <v>       0.83333333       0.50000000       0.40366785 </v>
    <v>       0.88888889       0.55555556       0.47372760 </v>
    <v>       0.88888889       0.38888889       0.47372760 </v>
    <v>       0.72222222       0.55555556       0.47372760 </v>
    <v>       0.72222222       0.38888889       0.47372760 </v>
    <v>       0.77777778       0.44444444       0.54378734 </v>
    <v>       0.77777778       0.61111111       0.54378734 </v>
    <v>       0.94444444       0.44444444       0.54378734 </v>
    <v>       0.94444444       0.61111111       0.54378734 </v>
    <v>       0.66666667       0.66666667       0.40366785 </v>
    <v>       0.66666667       0.83333333       0.40366785 </v>
    <v>       0.83333333       0.66666667       0.40366785 </v>
    <v>       0.83333333       0.83333333       0.40366785 </v>
    <v>       0.88888889       0.88888889       0.47372760 </v>
    <v>       0.88888889       0.72222222       0.47372760 </v>
    <v>       0.72222222       0.88888889       0.47372760 </v>
    <v>       0.72222222       0.72222222       0.47372760 </v>
    <v>       0.77777778       0.77777778       0.54378734 </v>
    <v>       0.77777778       0.94444444       0.54378734 </v>
    <v>       0.94444444       0.77777778       0.54378734 </v>
    <v>       0.94444444       0.94444444       0.54378734 </v>
    <v>       0.33333333       0.33333333       0.45621266 </v>
    <v>       0.22222222       0.22222222       0.42118279 </v>
    <v>       0.33333333       0.16666667       0.45621266 </v>
    <v>       0.22222222       0.05555556       0.42118279 </v>
    <v>       0.16666667       0.00000000       0.45621266 </v>
    <v>       0.05555556       0.22222222       0.42118279 </v>
    <v>       0.16666667       0.16666667       0.45621266 </v>
    <v>       0.05555556       0.05555556       0.42118279 </v>
    <v>       0.22222222       0.22222222       0.52627240 </v>
    <v>       0.11111111       0.11111111       0.49124253 </v>
    <v>       0.22222222       0.05555556       0.52627240 </v>
    <v>       0.11111111       0.27777778       0.49124253 </v>
    <v>       0.05555556       0.22222222       0.52627240 </v>
    <v>       0.27777778       0.11111111       0.49124253 </v>
    <v>       0.05555556       0.05555556       0.52627240 </v>
    <v>       0.27777778       0.27777778       0.49124253 </v>
    <v>       0.11111111       0.11111111       0.59633215 </v>
    <v>       1.00000000       0.33333333       0.56130228 </v>
    <v>       0.11111111       0.27777778       0.59633215 </v>
    <v>       0.33333333       0.16666667       0.56130228 </v>
    <v>       0.27777778       0.11111111       0.59633215 </v>
    <v>       0.16666667       0.33333333       0.56130228 </v>
    <v>       0.27777778       0.27777778       0.59633215 </v>
    <v>       0.16666667       0.16666667       0.56130228 </v>
    <v>       0.33333333       0.66666667       0.45621266 </v>
    <v>       0.22222222       0.55555556       0.42118279 </v>
    <v>       0.33333333       0.50000000       0.45621266 </v>
    <v>       0.22222222       0.38888889       0.42118279 </v>
    <v>       0.16666667       0.33333333       0.45621266 </v>
    <v>       0.05555556       0.55555556       0.42118279 </v>
    <v>       0.16666667       0.50000000       0.45621266 </v>
    <v>       0.05555556       0.38888889       0.42118279 </v>
    <v>       0.22222222       0.55555556       0.52627240 </v>
    <v>       0.11111111       0.44444444       0.49124253 </v>
    <v>       0.22222222       0.38888889       0.52627240 </v>
    <v>       0.11111111       0.61111111       0.49124253 </v>
    <v>       0.05555556       0.55555556       0.52627240 </v>
    <v>       0.27777778       0.44444444       0.49124253 </v>
    <v>       0.05555556       0.38888889       0.52627240 </v>
    <v>       0.27777778       0.61111111       0.49124253 </v>
    <v>       0.11111111       0.44444444       0.59633215 </v>
    <v>       1.00000000       0.66666667       0.56130228 </v>
    <v>       0.11111111       0.61111111       0.59633215 </v>
    <v>       0.33333333       0.50000000       0.56130228 </v>
    <v>       0.27777778       0.44444444       0.59633215 </v>
    <v>       0.16666667       0.66666667       0.56130228 </v>
    <v>       0.27777778       0.61111111       0.59633215 </v>
    <v>       0.16666667       0.50000000       0.56130228 </v>
    <v>       0.33333333       0.00000000       0.45621266 </v>
    <v>       0.22222222       0.88888889       0.42118279 </v>
    <v>       0.33333333       0.83333333       0.45621266 </v>
    <v>       0.22222222       0.72222222       0.42118279 </v>
    <v>       0.16666667       0.66666667       0.45621266 </v>
    <v>       0.05555556       0.88888889       0.42118279 </v>
    <v>       0.16666667       0.83333333       0.45621266 </v>
    <v>       0.05555556       0.72222222       0.42118279 </v>
    <v>       0.22222222       0.88888889       0.52627240 </v>
    <v>       0.11111111       0.77777778       0.49124253 </v>
    <v>       0.22222222       0.72222222       0.52627240 </v>
    <v>       0.11111111       0.94444444       0.49124253 </v>
    <v>       0.05555556       0.88888889       0.52627240 </v>
    <v>       0.27777778       0.77777778       0.49124253 </v>
    <v>       0.05555556       0.72222222       0.52627240 </v>
    <v>       0.27777778       0.94444444       0.49124253 </v>
    <v>       0.11111111       0.77777778       0.59633215 </v>
    <v>       0.00000000       0.00000000       0.56130228 </v>
    <v>       0.11111111       0.94444444       0.59633215 </v>
    <v>       0.33333333       0.83333333       0.56130228 </v>
    <v>       0.27777778       0.77777778       0.59633215 </v>
    <v>       0.16666667       0.00000000       0.56130228 </v>
    <v>       0.27777778       0.94444444       0.59633215 </v>
    <v>       0.16666667       0.83333333       0.56130228 </v>
    <v>       0.66666667       0.33333333       0.45621266 </v>
    <v>       0.55555556       0.22222222       0.42118279 </v>
    <v>       0.66666667       0.16666667       0.45621266 </v>
    <v>       0.55555556       0.05555556       0.42118279 </v>
    <v>       0.50000000       0.00000000       0.45621266 </v>
    <v>       0.38888889       0.22222222       0.42118279 </v>
    <v>       0.50000000       0.16666667       0.45621266 </v>
    <v>       0.38888889       0.05555556       0.42118279 </v>
    <v>       0.55555556       0.22222222       0.52627240 </v>
    <v>       0.44444444       0.11111111       0.49124253 </v>
    <v>       0.55555556       0.05555556       0.52627240 </v>
    <v>       0.44444444       0.27777778       0.49124253 </v>
    <v>       0.38888889       0.22222222       0.52627240 </v>
    <v>       0.61111111       0.11111111       0.49124253 </v>
    <v>       0.38888889       0.05555556       0.52627240 </v>
    <v>       0.61111111       0.27777778       0.49124253 </v>
    <v>       0.44444444       0.11111111       0.59633215 </v>
    <v>       0.33333333       0.33333333       0.56130228 </v>
    <v>       0.44444444       0.27777778       0.59633215 </v>
    <v>       0.66666667       0.16666667       0.56130228 </v>
    <v>       0.61111111       0.11111111       0.59633215 </v>
    <v>       0.50000000       0.33333333       0.56130228 </v>
    <v>       0.61111111       0.27777778       0.59633215 </v>
    <v>       0.50000000       0.16666667       0.56130228 </v>
    <v>       0.66666667       0.66666667       0.45621266 </v>
    <v>       0.55555556       0.55555556       0.42118279 </v>
    <v>       0.66666667       0.50000000       0.45621266 </v>
    <v>       0.55555556       0.38888889       0.42118279 </v>
    <v>       0.50000000       0.33333333       0.45621266 </v>
    <v>       0.38888889       0.55555556       0.42118279 </v>
    <v>       0.50000000       0.50000000       0.45621266 </v>
    <v>       0.38888889       0.38888889       0.42118279 </v>
    <v>       0.55555556       0.55555556       0.52627240 </v>
    <v>       0.44444444       0.44444444       0.49124253 </v>
    <v>       0.55555556       0.38888889       0.52627240 </v>
    <v>       0.44444444       0.61111111       0.49124253 </v>
    <v>       0.38888889       0.55555556       0.52627240 </v>
    <v>       0.61111111       0.44444444       0.49124253 </v>
    <v>       0.38888889       0.38888889       0.52627240 </v>
    <v>       0.61111111       0.61111111       0.49124253 </v>
    <v>       0.44444444       0.44444444       0.59633215 </v>
    <v>       0.33333333       0.66666667       0.56130228 </v>
    <v>       0.44444444       0.61111111       0.59633215 </v>
    <v>       0.66666667       0.50000000       0.56130228 </v>
    <v>       0.61111111       0.44444444       0.59633215 </v>
    <v>       0.50000000       0.66666667       0.56130228 </v>
    <v>       0.61111111       0.61111111       0.59633215 </v>
    <v>       0.50000000       0.50000000       0.56130228 </v>
    <v>       0.66666667       0.00000000       0.45621266 </v>
    <v>       0.55555556       0.88888889       0.42118279 </v>
    <v>       0.66666667       0.83333333       0.45621266 </v>
    <v>       0.55555556       0.72222222       0.42118279 </v>
    <v>       0.50000000       0.66666667       0.45621266 </v>
    <v>       0.38888889       0.88888889       0.42118279 </v>
    <v>       0.50000000       0.83333333       0.45621266 </v>
    <v>       0.38888889       0.72222222       0.42118279 </v>
    <v>       0.55555556       0.88888889       0.52627240 </v>
    <v>       0.44444444       0.77777778       0.49124253 </v>
    <v>       0.55555556       0.72222222       0.52627240 </v>
    <v>       0.44444444       0.94444444       0.49124253 </v>
    <v>       0.38888889       0.88888889       0.52627240 </v>
    <v>       0.61111111       0.77777778       0.49124253 </v>
    <v>       0.38888889       0.72222222       0.52627240 </v>
    <v>       0.61111111       0.94444444       0.49124253 </v>
    <v>       0.44444444       0.77777778       0.59633215 </v>
    <v>       0.33333333       0.00000000       0.56130228 </v>
    <v>       0.44444444       0.94444444       0.59633215 </v>
    <v>       0.66666667       0.83333333       0.56130228 </v>
    <v>       0.61111111       0.77777778       0.59633215 </v>
    <v>       0.50000000       0.00000000       0.56130228 </v>
    <v>       0.61111111       0.94444444       0.59633215 </v>
    <v>       0.50000000       0.83333333       0.56130228 </v>
    <v>       1.00000000       0.33333333       0.45621266 </v>
    <v>       0.88888889       0.22222222       0.42118279 </v>
    <v>       1.00000000       0.16666667       0.45621266 </v>
    <v>       0.88888889       0.05555556       0.42118279 </v>
    <v>       0.83333333       0.00000000       0.45621266 </v>
    <v>       0.72222222       0.22222222       0.42118279 </v>
    <v>       0.83333333       0.16666667       0.45621266 </v>
    <v>       0.72222222       0.05555556       0.42118279 </v>
    <v>       0.88888889       0.22222222       0.52627240 </v>
    <v>       0.77777778       0.11111111       0.49124253 </v>
    <v>       0.88888889       0.05555556       0.52627240 </v>
    <v>       0.77777778       0.27777778       0.49124253 </v>
    <v>       0.72222222       0.22222222       0.52627240 </v>
    <v>       0.94444444       0.11111111       0.49124253 </v>
    <v>       0.72222222       0.05555556       0.52627240 </v>
    <v>       0.94444444       0.27777778       0.49124253 </v>
    <v>       0.77777778       0.11111111       0.59633215 </v>
    <v>       0.66666667       0.33333333       0.56130228 </v>
    <v>       0.77777778       0.27777778       0.59633215 </v>
    <v>       1.00000000       0.16666667       0.56130228 </v>
    <v>       0.94444444       0.11111111       0.59633215 </v>
    <v>       0.83333333       0.33333333       0.56130228 </v>
    <v>       0.94444444       0.27777778       0.59633215 </v>
    <v>       0.83333333       0.16666667       0.56130228 </v>
    <v>       1.00000000       0.66666667       0.45621266 </v>
    <v>       0.88888889       0.55555556       0.42118279 </v>
    <v>       1.00000000       0.50000000       0.45621266 </v>
    <v>       0.88888889       0.38888889       0.42118279 </v>
    <v>       0.83333333       0.33333333       0.45621266 </v>
    <v>       0.72222222       0.55555556       0.42118279 </v>
    <v>       0.83333333       0.50000000       0.45621266 </v>
    <v>       0.72222222       0.38888889       0.42118279 </v>
    <v>       0.88888889       0.55555556       0.52627240 </v>
    <v>       0.77777778       0.44444444       0.49124253 </v>
    <v>       0.88888889       0.38888889       0.52627240 </v>
    <v>       0.77777778       0.61111111       0.49124253 </v>
    <v>       0.72222222       0.55555556       0.52627240 </v>
    <v>       0.94444444       0.44444444       0.49124253 </v>
    <v>       0.72222222       0.38888889       0.52627240 </v>
    <v>       0.94444444       0.61111111       0.49124253 </v>
    <v>       0.77777778       0.44444444       0.59633215 </v>
    <v>       0.66666667       0.66666667       0.56130228 </v>
    <v>       0.77777778       0.61111111       0.59633215 </v>
    <v>       1.00000000       0.50000000       0.56130228 </v>
    <v>       0.94444444       0.44444444       0.59633215 </v>
    <v>       0.83333333       0.66666667       0.56130228 </v>
    <v>       0.94444444       0.61111111       0.59633215 </v>
    <v>       0.83333333       0.50000000       0.56130228 </v>
    <v>       0.00000000       0.00000000       0.45621266 </v>
    <v>       0.88888889       0.88888889       0.42118279 </v>
    <v>       1.00000000       0.83333333       0.45621266 </v>
    <v>       0.88888889       0.72222222       0.42118279 </v>
    <v>       0.83333333       0.66666667       0.45621266 </v>
    <v>       0.72222222       0.88888889       0.42118279 </v>
    <v>       0.83333333       0.83333333       0.45621266 </v>
    <v>       0.72222222       0.72222222       0.42118279 </v>
    <v>       0.88888889       0.88888889       0.52627240 </v>
    <v>       0.77777778       0.77777778       0.49124253 </v>
    <v>       0.88888889       0.72222222       0.52627240 </v>
    <v>       0.77777778       0.94444444       0.49124253 </v>
    <v>       0.72222222       0.88888889       0.52627240 </v>
    <v>       0.94444444       0.77777778       0.49124253 </v>
    <v>       0.72222222       0.72222222       0.52627240 </v>
    <v>       0.94444444       0.94444444       0.49124253 </v>
    <v>       0.77777778       0.77777778       0.59633215 </v>
    <v>       0.66666667       0.00000000       0.56130228 </v>
    <v>       0.77777778       0.94444444       0.59633215 </v>
    <v>       1.00000000       0.83333333       0.56130228 </v>
    <v>       0.94444444       0.77777778       0.59633215 </v>
    <v>       0.83333333       0.00000000       0.56130228 </v>
    <v>       0.94444444       0.94444444       0.59633215 </v>
    <v>       0.83333333       0.83333333       0.56130228 </v>
    <v>       0.11185316       0.64377137       0.70958471 </v>
    <v>       0.23499357       0.60701153       0.68205791 </v>
    <v>       0.47173393       0.37197132       0.65167666 </v>
    <v>       0.54079801       0.44237130       0.66032707 </v>
    <v>       0.48082622       0.71001728       0.67281301 </v>
    <v>       0.58998901       0.66631367       0.70991058 </v>
    <v>       0.68600615       0.52820092       0.82143317 </v>
    <v>       0.81380255       0.48654819       0.79650320 </v>
    <v>       0.35450949       0.36092020       0.75848224 </v>
    <v>       0.35241956       0.42861808       0.76080328 </v>
    <v>       0.29036429       0.48559344       0.74611425 </v>
    <v>       0.22745009       0.50594068       0.75921948 </v>
    <v>       0.16885366       0.55841443       0.74694618 </v>
    <v>       0.17166260       0.59181447       0.72135733 </v>
    <v>       0.23392074       0.57300916       0.70788212 </v>
    <v>       0.29391087       0.52044953       0.72046619 </v>
    <v>       0.36655807       0.58453536       0.76509181 </v>
    <v>       0.36302242       0.59956876       0.73128986 </v>
    <v>       0.39398663       0.53719564       0.71121860 </v>
    <v>       0.35943558       0.50115341       0.70616862 </v>
    <v>       0.38595016       0.44657086       0.68635300 </v>
    <v>       0.44637693       0.42638551       0.67138172 </v>
    <v>       0.48127934       0.46110557       0.67596940 </v>
    <v>       0.45617953       0.51571566       0.69606373 </v>
    <v>       0.64636056       0.40235310       0.71919612 </v>
    <v>       0.58103712       0.45689067       0.73357941 </v>
    <v>       0.55381202       0.52484847       0.71803418 </v>
    <v>       0.49504323       0.55101306       0.69992311 </v>
    <v>       0.47253550       0.61162079       0.68446378 </v>
    <v>       0.50479999       0.64895955       0.68781665 </v>
    <v>       0.56097200       0.62575365       0.70640771 </v>
    <v>       0.58681646       0.56309202       0.72122071 </v>
    <v>       0.78753488       0.45238109       0.68215321 </v>
    <v>       0.72289364       0.51383519       0.69372344 </v>
    <v>       0.71262499       0.51593189       0.72755428 </v>
    <v>       0.64784509       0.53883707       0.74015679 </v>
    <v>       0.63977324       0.54283132       0.77141993 </v>
    <v>       0.69466459       0.52475740       0.79041222 </v>
    <v>       0.75831122       0.50382184       0.77814331 </v>
    <v>       0.76678220       0.50043427       0.74703793 </v>
    <v>       0.35968601       0.33965605       0.72727727 </v>
    <v>       0.43541218       0.54301621       0.77584657 </v>
    <v>       0.65905161       0.33563855       0.72777068 </v>
    <v>       0.78971630       0.38973008       0.69031753 </v>
    <v>       0.31233371       0.36785628       0.71732380 </v>
    <v>       0.37033754       0.28972738       0.72721234 </v>
    <v>       0.39934760       0.32272654       0.77099113 </v>
    <v>       0.30927556       0.36387786       0.76913073 </v>
    <v>       0.35221027       0.44089446       0.78493212 </v>
    <v>       0.39973115       0.42293512       0.75140569 </v>
    <v>       0.22373665       0.48111540       0.77918032 </v>
    <v>       0.12084421       0.57318531       0.75737568 </v>
    <v>       0.11084528       0.66982815       0.69107295 </v>
    <v>       0.27779365       0.59582185       0.67094339 </v>
    <v>       0.45527728       0.49489447       0.76672143 </v>
    <v>       0.46438901       0.56382188       0.76859856 </v>
    <v>       0.33694590       0.56007129       0.77072979 </v>
    <v>       0.34305842       0.63307950       0.77743408 </v>
    <v>       0.38601114       0.63136146       0.72752896 </v>
    <v>       0.30942671       0.63228347       0.72505083 </v>
    <v>       0.35872009       0.42020369       0.68207889 </v>
    <v>       0.44744219       0.34599676       0.64792996 </v>
    <v>       0.56079356       0.40346447       0.64566933 </v>
    <v>       0.62450370       0.32645897       0.71646326 </v>
    <v>       0.70660966       0.30043656       0.71965628 </v>
    <v>       0.68874926       0.40826761       0.72724036 </v>
    <v>       0.64401761       0.40705411       0.69435342 </v>
    <v>       0.54375164       0.43970285       0.73318876 </v>
    <v>       0.58988234       0.46138873       0.75770579 </v>
    <v>       0.42857557       0.63063961       0.67016641 </v>
    <v>       0.44004861       0.72843085       0.65921456 </v>
    <v>       0.62902719       0.65481892       0.72387363 </v>
    <v>       0.80452553       0.37920320       0.71276023 </v>
    <v>       0.82798584       0.35098563       0.67779510 </v>
    <v>       0.78792373       0.45594581       0.65728104 </v>
    <v>       0.83319784       0.45240691       0.69038489 </v>
    <v>       0.72350478       0.56011126       0.68699004 </v>
    <v>       0.68036445       0.51416399       0.68171994 </v>
    <v>       0.59032391       0.56081978       0.78104516 </v>
    <v>       0.64046627       0.54332807       0.83085280 </v>
    <v>       0.81033897       0.48827441       0.81916689 </v>
    <v>       0.81612777       0.48581877       0.73828816 </v>
   </varray>
  </structure>
  <varray name="primitive_index" >
   <v type="int" >        1 </v>
   <v type="int" >        2 </v>
   <v type="int" >        3 </v>
   <v type="int" >        4 </v>
   <v type="int" >        5 </v>
   <v type="int" >        6 </v>
   <v type="int" >        7 </v>
   <v type="int" >        8 </v>
   <v type="int" >        9 </v>
   <v type="int" >       10 </v>
   <v type="int" >       11 </v>
   <v type="int" >       12 </v>
   <v type="int" >       13 </v>
   <v type="int" >       14 </v>
   <v type="int" >       15 </v>
   <v type="int" >       16 </v>
   <v type="int" >       17 </v>
   <v type="int" >       18 </v>
   <v type="int" >       19 </v>
   <v type="int" >       20 </v>
   <v type="int" >       21 </v>
   <v type="int" >       22 </v>
   <v type="int" >       23 </v>
   <v type="int" >       24 </v>
   <v type="int" >       25 </v>
   <v type="int" >       26 </v>
   <v type="int" >       27 </v>
   <v type="int" >       28 </v>
   <v type="int" >       29 </v>
   <v type="int" >       30 </v>
   <v type="int" >       31 </v>
   <v type="int" >       32 </v>
   <v type="int" >       33 </v>
   <v type="int" >       34 </v>
   <v type="int" >       35 </v>
   <v type="int" >       36 </v>
   <v type="int" >       37 </v>
   <v type="int" >       38 </v>
   <v type="int" >       39 </v>
   <v type="int" >       40 </v>
   <v type="int" >       41 </v>
   <v type="int" >       42 </v>
   <v type="int" >       43 </v>
   <v type="int" >       44 </v>
   <v type="int" >       45 </v>
   <v type="int" >       46 </v>
   <v type="int" >       47 </v>
   <v type="int" >       48 </v>
   <v type="int" >       49 </v>
   <v type="int" >       50 </v>
   <v type="int" >       51 </v>
   <v type="int" >       52 </v>
   <v type="int" >       53 </v>
   <v type="int" >       54 </v>
   <v type="int" >       55 </v>
   <v type="int" >       56 </v>
   <v type="int" >       57 </v>
   <v type="int" >       58 </v>
   <v type="int" >       59 </v>
   <v type="int" >       60 </v>
   <v type="int" >       61 </v>
   <v type="int" >       62 </v>
   <v type="int" >       63 </v>
   <v type="int" >       64 </v>
   <v type="int" >       65 </v>
   <v type="int" >       66 </v>
   <v type="int" >       67 </v>
   <v type="int" >       68 </v>
   <v type="int" >       69 </v>
   <v type="int" >       70 </v>
   <v type="int" >       71 </v>
   <v type="int" >       72 </v>
   <v type="int" >       73 </v>
   <v type="int" >       74 </v>
   <v type="int" >       75 </v>
   <v type="int" >       76 </v>
   <v type="int" >       77 </v>
   <v type="int" >       78 </v>
   <v type="int" >       79 </v>
   <v type="int" >       80 </v>
   <v type="int" >       81 </v>
   <v type="int" >       82 </v>
   <v type="int" >       83 </v>
   <v type="int" >       84 </v>
   <v type="int" >       85 </v>
   <v type="int" >       86 </v>
   <v type="int" >       87 </v>
   <v type="int" >       88 </v>
   <v type="int" >       89 </v>
   <v type="int" >       90 </v>
   <v type="int" >       91 </v>
   <v type="int" >       92 </v>
   <v type="int" >       93 </v>
   <v type="int" >       94 </v>
   <v type="int" >       95 </v>
   <v type="int" >       96 </v>
   <v type="int" >       97 </v>
   <v type="int" >       98 </v>
   <v type="int" >       99 </v>
   <v type="int" >      100 </v>
   <v type="int" >      101 </v>
   <v type="int" >      102 </v>
   <v type="int" >      103 </v>
   <v type="int" >      104 </v>
   <v type="int" >      105 </v>
   <v type="int" >      106 </v>
   <v type="int" >      107 </v>
   <v type="int" >      108 </v>
   <v type="int" >      109 </v>
   <v type="int" >      110 </v>
   <v type="int" >      111 </v>
   <v type="int" >      112 </v>
   <v type="int" >      113 </v>
   <v type="int" >      114 </v>
   <v type="int" >      115 </v>
   <v type="int" >      116 </v>
   <v type="int" >      117 </v>
   <v type="int" >      118 </v>
   <v type="int" >      119 </v>
   <v type="int" >      120 </v>
   <v type="int" >      121 </v>
   <v type="int" >      122 </v>
   <v type="int" >      123 </v>
   <v type="int" >      124 </v>
   <v type="int" >      125 </v>
   <v type="int" >      126 </v>
   <v type="int" >      127 </v>
   <v type="int" >      128 </v>
   <v type="int" >      129 </v>
   <v type="int" >      130 </v>
   <v type="int" >      131 </v>
   <v type="int" >      132 </v>
   <v type="int" >      133 </v>
   <v type="int" >      134 </v>
   <v type="int" >      135 </v>
   <v type="int" >      136 </v>
   <v type="int" >      137 </v>
   <v type="int" >      138 </v>
   <v type="int" >      139 </v>
   <v type="int" >      140 </v>
   <v type="int" >      141 </v>
   <v type="int" >      142 </v>
   <v type="int" >      143 </v>
   <v type="int" >      144 </v>
   <v type="int" >      145 </v>
   <v type="int" >      146 </v>
   <v type="int" >      147 </v>
   <v type="int" >      148 </v>
   <v type="int" >      149 </v>
   <v type="int" >      150 </v>
   <v type="int" >      151 </v>
   <v type="int" >      152 </v>
   <v type="int" >      153 </v>
   <v type="int" >      154 </v>
   <v type="int" >      155 </v>
   <v type="int" >      156 </v>
   <v type="int" >      157 </v>
   <v type="int" >      158 </v>
   <v type="int" >      159 </v>
   <v type="int" >      160 </v>
   <v type="int" >      161 </v>
   <v type="int" >      162 </v>
   <v type="int" >      163 </v>
   <v type="int" >      164 </v>
   <v type="int" >      165 </v>
   <v type="int" >      166 </v>
   <v type="int" >      167 </v>
   <v type="int" >      168 </v>
   <v type="int" >      169 </v>
   <v type="int" >      170 </v>
   <v type="int" >      171 </v>
   <v type="int" >      172 </v>
   <v type="int" >      173 </v>
   <v type="int" >      174 </v>
   <v type="int" >      175 </v>
   <v type="int" >      176 </v>
   <v type="int" >      177 </v>
   <v type="int" >      178 </v>
   <v type="int" >      179 </v>
   <v type="int" >      180 </v>
   <v type="int" >      181 </v>
   <v type="int" >      182 </v>
   <v type="int" >      183 </v>
   <v type="int" >      184 </v>
   <v type="int" >      185 </v>
   <v type="int" >      186 </v>
   <v type="int" >      187 </v>
   <v type="int" >      188 </v>
   <v type="int" >      189 </v>
   <v type="int" >      190 </v>
   <v type="int" >      191 </v>
   <v type="int" >      192 </v>
   <v type="int" >      193 </v>
   <v type="int" >      194 </v>
   <v type="int" >      195 </v>
   <v type="int" >      196 </v>
   <v type="int" >      197 </v>
   <v type="int" >      198 </v>
   <v type="int" >      199 </v>
   <v type="int" >      200 </v>
   <v type="int" >      201 </v>
   <v type="int" >      202 </v>
   <v type="int" >      203 </v>
   <v type="int" >      204 </v>
   <v type="int" >      205 </v>
   <v type="int" >      206 </v>
   <v type="int" >      207 </v>
   <v type="int" >      208 </v>
   <v type="int" >      209 </v>
   <v type="int" >      210 </v>
   <v type="int" >      211 </v>
   <v type="int" >      212 </v>
   <v type="int" >      213 </v>
   <v type="int" >      214 </v>
   <v type="int" >      215 </v>
   <v type="int" >      216 </v>
   <v type="int" >      217 </v>
   <v type="int" >      218 </v>
   <v type="int" >      219 </v>
   <v type="int" >      220 </v>
   <v type="int" >      221 </v>
   <v type="int" >      222 </v>
   <v type="int" >      223 </v>
   <v type="int" >      224 </v>
   <v type="int" >      225 </v>
   <v type="int" >      226 </v>
   <v type="int" >      227 </v>
   <v type="int" >      228 </v>
   <v type="int" >      229 </v>
   <v type="int" >      230 </v>
   <v type="int" >      231 </v>
   <v type="int" >      232 </v>
   <v type="int" >      233 </v>
   <v type="int" >      234 </v>
   <v type="int" >      235 </v>
   <v type="int" >      236 </v>
   <v type="int" >      237 </v>
   <v type="int" >      238 </v>
   <v type="int" >      239 </v>
   <v type="int" >      240 </v>
   <v type="int" >      241 </v>
   <v type="int" >      242 </v>
   <v type="int" >      243 </v>
   <v type="int" >      244 </v>
   <v type="int" >      245 </v>
   <v type="int" >      246 </v>
   <v type="int" >      247 </v>
   <v type="int" >      248 </v>
   <v type="int" >      249 </v>
   <v type="int" >      250 </v>
   <v type="int" >      251 </v>
   <v type="int" >      252 </v>
   <v type="int" >      253 </v>
   <v type="int" >      254 </v>
   <v type="int" >      255 </v>
   <v type="int" >      256 </v>
   <v type="int" >      257 </v>
   <v type="int" >      258 </v>
   <v type="int" >      259 </v>
   <v type="int" >      260 </v>
   <v type="int" >      261 </v>
   <v type="int" >      262 </v>
   <v type="int" >      263 </v>
   <v type="int" >      264 </v>
   <v type="int" >      265 </v>
   <v type="int" >      266 </v>
   <v type="int" >      267 </v>
   <v type="int" >      268 </v>
   <v type="int" >      269 </v>
   <v type="int" >      270 </v>
   <v type="int" >      271 </v>
   <v type="int" >      272 </v>
   <v type="int" >      273 </v>
   <v type="int" >      274 </v>
   <v type="int" >      275 </v>
   <v type="int" >      276 </v>
   <v type="int" >      277 </v>
   <v type="int" >      278 </v>
   <v type="int" >      279 </v>
   <v type="int" >      280 </v>
   <v type="int" >      281 </v>
   <v type="int" >      282 </v>
   <v type="int" >      283 </v>
   <v type="int" >      284 </v>
   <v type="int" >      285 </v>
   <v type="int" >      286 </v>
   <v type="int" >      287 </v>
   <v type="int" >      288 </v>
   <v type="int" >      289 </v>
   <v type="int" >      290 </v>
   <v type="int" >      291 </v>
   <v type="int" >      292 </v>
   <v type="int" >      293 </v>
   <v type="int" >      294 </v>
   <v type="int" >      295 </v>
   <v type="int" >      296 </v>
   <v type="int" >      297 </v>
   <v type="int" >      298 </v>
   <v type="int" >      299 </v>
   <v type="int" >      300 </v>
   <v type="int" >      301 </v>
   <v type="int" >      302 </v>
   <v type="int" >      303 </v>
   <v type="int" >      304 </v>
   <v type="int" >      305 </v>
   <v type="int" >      306 </v>
   <v type="int" >      307 </v>
   <v type="int" >      308 </v>
   <v type="int" >      309 </v>
   <v type="int" >      310 </v>
   <v type="int" >      311 </v>
   <v type="int" >      312 </v>
   <v type="int" >      313 </v>
   <v type="int" >      314 </v>
   <v type="int" >      315 </v>
   <v type="int" >      316 </v>
   <v type="int" >      317 </v>
   <v type="int" >      318 </v>
   <v type="int" >      319 </v>
   <v type="int" >      320 </v>
   <v type="int" >      321 </v>
   <v type="int" >      322 </v>
   <v type="int" >      323 </v>
   <v type="int" >      324 </v>
   <v type="int" >      325 </v>
   <v type="int" >      326 </v>
   <v type="int" >      327 </v>
   <v type="int" >      328 </v>
   <v type="int" >      329 </v>
   <v type="int" >      330 </v>
   <v type="int" >      331 </v>
   <v type="int" >      332 </v>
   <v type="int" >      333 </v>
   <v type="int" >      334 </v>
   <v type="int" >      335 </v>
   <v type="int" >      336 </v>
   <v type="int" >      337 </v>
   <v type="int" >      338 </v>
   <v type="int" >      339 </v>
   <v type="int" >      340 </v>
   <v type="int" >      341 </v>
   <v type="int" >      342 </v>
   <v type="int" >      343 </v>
   <v type="int" >      344 </v>
   <v type="int" >      345 </v>
   <v type="int" >      346 </v>
   <v type="int" >      347 </v>
   <v type="int" >      348 </v>
   <v type="int" >      349 </v>
   <v type="int" >      350 </v>
   <v type="int" >      351 </v>
   <v type="int" >      352 </v>
   <v type="int" >      353 </v>
   <v type="int" >      354 </v>
   <v type="int" >      355 </v>
   <v type="int" >      356 </v>
   <v type="int" >      357 </v>
   <v type="int" >      358 </v>
   <v type="int" >      359 </v>
   <v type="int" >      360 </v>
   <v type="int" >      361 </v>
   <v type="int" >      362 </v>
   <v type="int" >      363 </v>
   <v type="int" >      364 </v>
   <v type="int" >      365 </v>
   <v type="int" >      366 </v>
   <v type="int" >      367 </v>
   <v type="int" >      368 </v>
   <v type="int" >      369 </v>
   <v type="int" >      370 </v>
   <v type="int" >      371 </v>
   <v type="int" >      372 </v>
   <v type="int" >      373 </v>
   <v type="int" >      374 </v>
   <v type="int" >      375 </v>
   <v type="int" >      376 </v>
   <v type="int" >      377 </v>
   <v type="int" >      378 </v>
   <v type="int" >      379 </v>
   <v type="int" >      380 </v>
   <v type="int" >      381 </v>
   <v type="int" >      382 </v>
   <v type="int" >      383 </v>
   <v type="int" >      384 </v>
   <v type="int" >      385 </v>
   <v type="int" >      386 </v>
   <v type="int" >      387 </v>
   <v type="int" >      388 </v>
   <v type="int" >      389 </v>
   <v type="int" >      390 </v>
   <v type="int" >      391 </v>
   <v type="int" >      392 </v>
   <v type="int" >      393 </v>
   <v type="int" >      394 </v>
   <v type="int" >      395 </v>
   <v type="int" >      396 </v>
   <v type="int" >      397 </v>
   <v type="int" >      398 </v>
   <v type="int" >      399 </v>
   <v type="int" >      400 </v>
   <v type="int" >      401 </v>
   <v type="int" >      402 </v>
   <v type="int" >      403 </v>
   <v type="int" >      404 </v>
   <v type="int" >      405 </v>
   <v type="int" >      406 </v>
  </varray>
 </primitive_cell>
 <kpoints>
  <generation param="Gamma">
   <v type="int" name="divisions">       1        1        1 </v>
   <v name="usershift">      0.00000000       0.00000000       0.00000000 </v>
   <v name="genvec1">      1.00000000       0.00000000       0.00000000 </v>
   <v name="genvec2">      0.00000000       1.00000000       0.00000000 </v>
   <v name="genvec3">      0.00000000       0.00000000       1.00000000 </v>
   <v name="shift">      0.00000000       0.00000000       0.00000000 </v>
  </generation>
  <varray name="kpointlist" >
   <v>       0.00000000       0.00000000       0.00000000 </v>
  </varray>
  <varray name="weights" >
   <v>       1.00000000 </v>
  </varray>
 </kpoints>
 <parameters>
  <separator name="general" >
   <i type="string" name="SYSTEM">PDA@CeO2 production-baseline</i>
   <i type="logical" name="LCOMPAT"> F  </i>
  </separator>
  <separator name="electronic" >
   <i type="string" name="PREC">accura</i>
   <i name="ENMAX">    520.00000000</i>
   <i name="ENAUG">    644.87300000</i>
   <i name="EDIFF">      0.00000100</i>
   <i type="int" name="IALGO">    38</i>
   <i type="int" name="IWAVPR">    11</i>
   <i type="int" name="NBANDS">  1749</i>
   <i type="int" name="NBANDSLOW">    -1</i>
   <i type="int" name="NBANDSHIGH">    -1</i>
   <i name="NELECT">   2826.00000000</i>
   <i type="int" name="TURBO">     0</i>
   <i type="int" name="IRESTART">     0</i>
   <i type="int" name="NREBOOT">     0</i>
   <i type="int" name="NMIN">     0</i>
   <i name="EREF">      0.00000000</i>
   <separator name="electronic smearing" >
    <i type="int" name="ISMEAR">     0</i>
    <i name="SIGMA">      0.05000000</i>
    <i name="KSPACING">      0.50000000</i>
    <i type="logical" name="KGAMMA"> T  </i>
    <i type="logical" name="KBLOWUP"> T  </i>
   </separator>
   <separator name="electronic projectors" >
    <i type="logical" name="LREAL"> T  </i>
    <v name="ROPT">     -0.00025000     -0.00025000     -0.00025000     -0.00025000     -0.00025000</v>
    <i type="int" name="LMAXPAW">  -100</i>
    <i type="int" name="LMAXMIX">     6</i>
    <i type="logical" name="NLSPLINE"> F  </i>
   </separator>
   <separator name="electronic startup" >
    <i type="int" name="ISTART">     0</i>
    <i type="int" name="ICHARG">     2</i>
    <i type="int" name="INIWAV">     1</i>
   </separator>
   <separator name="electronic spin" >
    <i type="int" name="ISPIN">     2</i>
    <i type="logical" name="LNONCOLLINEAR"> F  </i>
    <v name="MAGMOM">      1.00000000      1.00000000      1.00000000      1.00000000      1.00000000      1.00000000      1.00000000      1.00000000      1.00000000      1.00000000      1.00000000      1.00000000      1.00000000      1.00000000      1.00000000      1.00000000      1.00000000      1.00000000      1.00000000      1.00000000
      1.00000000      1.00000000      1.00000000      1.00000000      1.00000000      1.00000000      1.00000000      1.00000000      1.00000000      1.00000000      1.00000000      1.00000000      1.00000000      1.00000000      1.00000000      1.00000000      1.00000000      1.00000000      1.00000000      1.00000000
      1.00000000      1.00000000      1.00000000      1.00000000      1.00000000      1.00000000      1.00000000      1.00000000      1.00000000      1.00000000      1.00000000      1.00000000      1.00000000      1.00000000      1.00000000      1.00000000      1.00000000      1.00000000      1.00000000      1.00000000
      1.00000000      1.00000000      1.00000000      1.00000000      1.00000000      1.00000000      1.00000000      1.00000000      1.00000000      1.00000000      1.00000000      1.00000000      1.00000000      1.00000000      1.00000000      1.00000000      1.00000000      1.00000000      1.00000000      1.00000000
      1.00000000      1.00000000      1.00000000      1.00000000      1.00000000      1.00000000      1.00000000      1.00000000      1.00000000      1.00000000      1.00000000      1.00000000      1.00000000      1.00000000      1.00000000      1.00000000      1.00000000      1.00000000      1.00000000      1.00000000
      1.00000000      1.00000000      1.00000000      1.00000000      1.00000000      1.00000000      1.00000000      1.00000000      0.00000000      0.00000000      0.00000000      0.00000000      0.00000000      0.00000000      0.00000000      0.00000000      0.00000000      0.00000000      0.00000000      0.00000000
      0.00000000      0.00000000      0.00000000      0.00000000      0.00000000      0.00000000      0.00000000      0.00000000      0.00000000      0.00000000      0.00000000      0.00000000      0.00000000      0.00000000      0.00000000      0.00000000      0.00000000      0.00000000      0.00000000      0.00000000
      0.00000000      0.00000000      0.00000000      0.00000000      0.00000000      0.00000000      0.00000000      0.00000000      0.00000000      0.00000000      0.00000000      0.00000000      0.00000000      0.00000000      0.00000000      0.00000000      0.00000000      0.00000000      0.00000000      0.00000000
      0.00000000      0.00000000      0.00000000      0.00000000      0.00000000      0.00000000      0.00000000      0.00000000      0.00000000      0.00000000      0.00000000      0.00000000      0.00000000      0.00000000      0.00000000      0.00000000      0.00000000      0.00000000      0.00000000      0.00000000
      0.00000000      0.00000000      0.00000000      0.00000000      0.00000000      0.00000000      0.00000000      0.00000000      0.00000000      0.00000000      0.00000000      0.00000000      0.00000000      0.00000000      0.00000000      0.00000000      0.00000000      0.00000000      0.00000000      0.00000000
      0.00000000      0.00000000      0.00000000      0.00000000      0.00000000      0.00000000      0.00000000      0.00000000      0.00000000      0.00000000      0.00000000      0.00000000      0.00000000      0.00000000      0.00000000      0.00000000      0.00000000      0.00000000      0.00000000      0.00000000
      0.00000000      0.00000000      0.00000000      0.00000000      0.00000000      0.00000000      0.00000000      0.00000000      0.00000000      0.00000000      0.00000000      0.00000000      0.00000000      0.00000000      0.00000000      0.00000000      0.00000000      0.00000000      0.00000000      0.00000000
      0.00000000      0.00000000      0.00000000      0.00000000      0.00000000      0.00000000      0.00000000      0.00000000      0.00000000      0.00000000      0.00000000      0.00000000      0.00000000      0.00000000      0.00000000      0.00000000      0.00000000      0.00000000      0.00000000      0.00000000
      0.00000000      0.00000000      0.00000000      0.00000000      0.00000000      0.00000000      0.00000000      0.00000000      0.00000000      0.00000000      0.00000000      0.00000000      0.00000000      0.00000000      0.00000000      0.00000000      0.00000000      0.00000000      0.00000000      0.00000000
      0.00000000      0.00000000      0.00000000      0.00000000      0.00000000      0.00000000      0.00000000      0.00000000      0.00000000      0.00000000      0.00000000      0.00000000      0.00000000      0.00000000      0.00000000      0.00000000      0.00000000      0.00000000      0.00000000      0.00000000
      0.00000000      0.00000000      0.00000000      0.00000000      0.00000000      0.00000000      0.00000000      0.00000000      0.00000000      0.00000000      0.00000000      0.00000000      0.00000000      0.00000000      0.00000000      0.00000000      0.00000000      0.00000000      0.00000000      0.00000000
      0.00000000      0.00000000      0.00000000      0.00000000      0.00000000      0.00000000      0.00000000      0.00000000      0.00000000      0.00000000      0.00000000      0.00000000      0.00000000      0.00000000      0.00000000      0.00000000      0.00000000      0.00000000      0.00000000      0.00000000
      0.00000000      0.00000000      0.00000000      0.00000000      0.00000000      0.00000000      0.00000000      0.00000000      0.00000000      0.00000000      0.00000000      0.00000000      0.00000000      0.00000000      0.00000000      0.00000000      0.00000000      0.00000000      0.00000000      0.00000000
      0.00000000      0.00000000      0.00000000      0.00000000      0.00000000      0.00000000      0.00000000      0.00000000      0.00000000      0.00000000      0.00000000      0.00000000      0.00000000      0.00000000      0.00000000      0.00000000      0.00000000      0.00000000      0.00000000      0.00000000
      0.00000000      0.00000000      0.00000000      0.00000000      0.00000000      0.00000000      0.00000000      0.00000000      0.00000000      0.00000000      0.00000000      0.00000000      0.00000000      0.00000000      0.00000000      0.00000000      0.00000000      0.00000000      0.00000000      0.00000000
      0.00000000      0.00000000      0.00000000      0.00000000      0.00000000      0.00000000</v>
    <i name="NUPDOWN">     -1.00000000</i>
    <i type="logical" name="LSORBIT"> F  </i>
    <v name="SAXIS">      0.00000000      0.00000000      1.00000000</v>
    <i type="logical" name="LSPIRAL"> F  </i>
    <v name="QSPIRAL">      0.00000000      0.00000000      0.00000000</v>
    <i type="logical" name="LZEROZ"> F  </i>
   </separator>
   <separator name="electronic exchange-correlation" >
    <i type="logical" name="LASPH"> T  </i>
    <i type="logical" name="LMETAGGA"> F  </i>
   </separator>
   <separator name="electronic convergence" >
    <i type="int" name="NELM">   160</i>
    <i type="int" name="NELMDL">    -5</i>
    <i type="int" name="NELMIN">     2</i>
    <i name="ENINI">    520.00000000</i>
    <separator name="electronic convergence detail" >
     <i type="logical" name="LDIAG"> T  </i>
     <i type="logical" name="LSUBROT"> F  </i>
     <i name="WEIMIN">      0.00100000</i>
     <i name="EBREAK">      0.00000000</i>
     <i name="DEPER">      0.30000000</i>
     <i type="int" name="NRMM">     4</i>
     <i name="TIME">      0.40000000</i>
    </separator>
   </separator>
   <separator name="electronic mixer" >
    <i name="AMIX">      0.40000000</i>
    <i name="BMIX">      1.00000000</i>
    <i name="AMIN">      0.10000000</i>
    <i name="AMIX_MAG">      1.60000000</i>
    <i name="BMIX_MAG">      1.00000000</i>
    <separator name="electronic mixer details" >
     <i type="int" name="IMIX">     4</i>
     <i type="logical" name="MIXFIRST"> F  </i>
     <i type="int" name="MAXMIX">   -45</i>
     <i name="WC">    100.00000000</i>
     <i type="int" name="INIMIX">     1</i>
     <i type="int" name="MIXPRE">     1</i>
     <i type="int" name="MREMOVE">     5</i>
    </separator>
   </separator>
   <separator name="electronic dipolcorrection" >
    <i type="logical" name="LDIPOL"> T  </i>
    <i type="logical" name="LMONO"> F  </i>
    <i type="int" name="IDIPOL">     3</i>
    <i name="EPSILON">      1.00000000</i>
    <v name="DIPOL">   -100.00000000   -100.00000000   -100.00000000</v>
    <i name="EFIELD">      0.00000000</i>
   </separator>
  </separator>
  <separator name="grids" >
   <i type="int" name="NGX">   180</i>
   <i type="int" name="NGY">   180</i>
   <i type="int" name="NGZ">   336</i>
   <i type="int" name="NGXF">   360</i>
   <i type="int" name="NGYF">   360</i>
   <i type="int" name="NGZF">   672</i>
   <i type="logical" name="ADDGRID"> T  </i>
  </separator>
  <separator name="ionic" >
   <i type="int" name="NSW">   200</i>
   <i type="int" name="IBRION">     2</i>
   <i type="int" name="MDALGO">     0</i>
   <i type="int" name="ISIF">     2</i>
   <i name="PSTRESS">      0.00000000</i>
   <i name="EDIFFG">     -0.02000000</i>
   <i type="int" name="NFREE">     1</i>
   <i name="POTIM">      0.50000000</i>
   <i name="SMASS">     -3.00000000</i>
   <i name="SCALEE">      1.00000000</i>
  </separator>
  <separator name="ionic md" >
   <i name="TEBEG">      0.00010000</i>
   <i name="TEEND">      0.00010000</i>
   <i type="int" name="NBLOCK">     1</i>
   <i type="int" name="KBLOCK">   200</i>
   <i type="int" name="NPACO">   256</i>
   <i name="APACO">     10.00000000</i>
  </separator>
  <separator name="symmetry" >
   <i type="int" name="ISYM">     0</i>
   <i name="SYMPREC">      0.00001000</i>
  </separator>
  <separator name="dos" >
   <i type="int" name="LORBIT">    11</i>
   <v name="RWIGS">     -1.00000000     -1.00000000     -1.00000000     -1.00000000     -1.00000000</v>
   <i type="int" name="NEDOS">   301</i>
   <i name="EMIN">     10.00000000</i>
   <i name="EMAX">    -10.00000000</i>
   <i name="EFERMI">      0.00000000</i>
  </separator>
  <separator name="writing" >
   <i type="int" name="NWRITE">     2</i>
   <i type="logical" name="LWAVE"> F  </i>
   <i type="logical" name="LDOWNSAMPLE"> F  </i>
   <i type="logical" name="LCHARG"> T  </i>
   <i type="logical" name="LPARD"> F  </i>
   <i type="logical" name="LVTOT"> F  </i>
   <i type="logical" name="LVHAR"> F  </i>
   <i type="logical" name="LELF"> F  </i>
   <i type="logical" name="LOPTICS"> F  </i>
   <v name="STM">      0.00000000      0.00000000      0.00000000      0.00000000      0.00000000      0.00000000      0.00000000</v>
  </separator>
  <separator name="performance" >
   <i type="int" name="NPAR">     1</i>
   <i type="int" name="NSIM">     4</i>
   <i type="int" name="NBLK">    -1</i>
   <i type="logical" name="LPLANE"> T  </i>
   <i type="logical" name="LSCALAPACK"> T  </i>
   <i type="logical" name="LSCAAWARE"> F  </i>
   <i type="logical" name="LSCALU"> F  </i>
   <i type="logical" name="LASYNC"> F  </i>
   <i type="logical" name="LORBITALREAL"> F  </i>
  </separator>
  <separator name="miscellaneous" >
   <i type="int" name="IDIOT">     3</i>
   <i type="int" name="PHON_NSTRUCT">    -1</i>
   <i type="logical" name="LMUSIC"> F  </i>
   <v name="POMASS">    140.11500000     16.00000000     12.01100000     14.00100000      1.00000000</v>
   <v name="DARWINR">      0.00000000      0.00000000      0.00000000      0.00000000      0.00000000</v>
   <v name="DARWINV">      1.00000000      1.00000000      1.00000000      1.00000000      1.00000000</v>
   <i type="logical" name="LCORR"> T  </i>
  </separator>
  <i type="logical" name="GGA_COMPAT"> T  </i>
  <i type="logical" name="LBERRY"> F  </i>
  <i type="int" name="ICORELEVEL">     0</i>
  <i type="logical" name="LDAU"> T  </i>
  <v type="int" name="LDAUTYPE">     2</v>
  <v type="int" name="LDAUL">     3</v>
  <v name="LDAUU">      4.50000000</v>
  <v name="LDAUJ">      0.00000000</v>
  <i type="int" name="LDAUPRINT">     0</i>
  <i type="int" name="I_CONSTRAINED_M">     0</i>
  <separator name="electronic exchange-correlation" >
   <i type="string" name="GGA">MK</i>
   <i type="int" name="VOSKOWN">     0</i>
   <i type="logical" name="LHFCALC"> F  </i>
   <i type="string" name="PRECFOCK"></i>
   <i type="logical" name="LSYMGRAD"> F  </i>
   <i type="logical" name="LHFONE"> F  </i>
   <i type="logical" name="LRHFCALC"> F  </i>
   <i type="logical" name="LTHOMAS"> F  </i>
   <i type="logical" name="LMODELHF"> F  </i>
   <i type="logical" name="LFOCKACE"> F  </i>
   <i name="ENCUT4O">     -1.00000000</i>
   <i type="int" name="EXXOEP">     0</i>
   <i type="int" name="FOURORBIT">     0</i>
   <i name="AEXX">      0.00000000</i>
   <i name="HFALPHA">      0.00000000</i>
   <i name="MCALPHA">      0.00000000</i>
   <i name="ALDAX">      1.00000000</i>
   <i name="AGGAX">      1.00000000</i>
   <i name="ALDAC">      1.00000000</i>
   <i name="AGGAC">      0.00000000</i>
   <i type="int" name="NKREDX">     1</i>
   <i type="int" name="NKREDY">     1</i>
   <i type="int" name="NKREDZ">     1</i>
   <i type="logical" name="SHIFTRED"> F  </i>
   <i type="logical" name="ODDONLY"> F  </i>
   <i type="logical" name="EVENONLY"> F  </i>
   <i type="int" name="LMAXFOCK">     0</i>
   <i type="int" name="NMAXFOCKAE">     0</i>
   <i type="logical" name="LFOCKAEDFT"> F  </i>
   <i name="HFSCREEN">      0.00000000</i>
   <i name="HFSCREENC">      0.00000000</i>
   <i type="int" name="NBANDSGWLOW">     0</i>
  </separator>
  <separator name="vdW DFT" >
   <i type="logical" name="LUSE_VDW"> T  </i>
   <i type="int" name="IVDW_NL">     1</i>
   <i type="logical" name="LSPIN_VDW"> F  </i>
   <i name="Zab_VDW">     -0.84910000</i>
   <i name="PARAM1">      0.12340000</i>
   <i name="PARAM2">      1.00000000</i>
   <i name="PARAM3">      0.00000000</i>
  </separator>
  <separator name="model GW" >
   <i type="int" name="MODEL_GW">     0</i>
   <i name="MODEL_EPS0">     30.07680960</i>
   <i name="MODEL_ALPHA">      1.00000000</i>
  </separator>
  <separator name="linear response parameters" >
   <i type="logical" name="LEPSILON"> F  </i>
   <i type="logical" name="LRPA"> F  </i>
   <i type="logical" name="LNABLA"> F  </i>
   <i type="logical" name="LVEL"> F  </i>
   <i name="CSHIFT">      0.10000000</i>
   <i name="OMEGAMAX">     -1.00000000</i>
   <i name="DEG_THRESHOLD">      0.00200000</i>
   <i name="RTIME">     -0.10000000</i>
   <i name="WPLASMAI">      0.00000000</i>
   <v name="DFIELD">      0.00000000      0.00000000      0.00000000</v>
   <v name="WPLASMA">      0.00000000      0.00000000      0.00000000      0.00000000      0.00000000      0.00000000      0.00000000      0.00000000      0.00000000</v>
  </separator>
  <separator name="orbital magnetization" >
