Ce O  H 
 1.0000000000000000
    22.9569287580024479    0.0000000000000000    0.0000000000000000
     0.0000000000000000   10.8219999999999992    0.0000000000000000
     0.0000000000000000    0.0000000000000000   47.4784643790012240
 Ce  O   H  
  72 144   4
Selective dynamics
Direct
  0.0000000000000000  0.0000000000000000  0.3791192540751390   F   F   F
  0.2500000000000000  0.2500000000000000  0.4194128360500927   F   F   F
  0.0833333333333334  0.2500000000000000  0.4194128360500927   F   F   F
  0.1666666666666667  0.0000000000000000  0.3791192540751390   F   F   F
  0.1666666666666667  0.0000000000000000  0.4597064180250463   F   F   F
  0.0833333333333333  0.2500000000000000  0.4999999999999999   T   T   T
  0.2500000000000000  0.2500000000000000  0.4999999999999999   T   T   T
  0.0000000000000000  0.0000000000000000  0.4597064180250463   F   F   F
  0.0000000000000001  0.0000000000000000  0.5402935819749537   T   T   T
  0.2500000000000000  0.2500000000000000  0.5805871639499074   T   T   T
  0.0833333333333334  0.2500000000000000  0.5805871639499074   T   T   T
  0.1666666666666668  0.0000000000000000  0.5402935819749537   T   T   T
  0.0000000000000000  0.5000000000000000  0.3791192540751390   F   F   F
  0.2500000000000000  0.7500000000000000  0.4194128360500927   F   F   F
  0.0833333333333334  0.7500000000000000  0.4194128360500927   F   F   F
  0.1666666666666667  0.5000000000000000  0.3791192540751390   F   F   F
  0.1666666666666667  0.5000000000000000  0.4597064180250463   F   F   F
  0.0833333333333333  0.7500000000000000  0.4999999999999999   T   T   T
  0.2500000000000000  0.7500000000000000  0.4999999999999999   T   T   T
  0.0000000000000000  0.5000000000000000  0.4597064180250463   F   F   F
  0.0000000000000001  0.5000000000000000  0.5402935819749537   T   T   T
  0.2500000000000000  0.7500000000000000  0.5805871639499074   T   T   T
  0.0833333333333334  0.7500000000000000  0.5805871639499074   T   T   T
  0.1666666666666668  0.5000000000000000  0.5402935819749537   T   T   T
  0.3333333333333334  0.0000000000000000  0.3791192540751390   F   F   F
  0.5833333333333334  0.2500000000000000  0.4194128360500927   F   F   F
  0.4166666666666667  0.2500000000000000  0.4194128360500927   F   F   F
  0.5000000000000000  0.0000000000000000  0.3791192540751390   F   F   F
  0.5000000000000000  0.0000000000000000  0.4597064180250463   F   F   F
  0.4166666666666667  0.2500000000000000  0.4999999999999999   T   T   T
  0.5833333333333334  0.2500000000000000  0.4999999999999999   T   T   T
  0.3333333333333334  0.0000000000000000  0.4597064180250463   F   F   F
  0.3333333333333334  0.0000000000000000  0.5402935819749537   T   T   T
  0.5833333333333334  0.2500000000000000  0.5805871639499074   T   T   T
  0.4166666666666668  0.2500000000000000  0.5805871639499074   T   T   T
  0.5000000000000001  0.0000000000000000  0.5402935819749537   T   T   T
  0.3333333333333334  0.5000000000000000  0.3791192540751390   F   F   F
  0.5833333333333334  0.7500000000000000  0.4194128360500927   F   F   F
  0.4166666666666667  0.7500000000000000  0.4194128360500927   F   F   F
  0.5000000000000000  0.5000000000000000  0.3791192540751390   F   F   F
  0.5000000000000000  0.5000000000000000  0.4597064180250463   F   F   F
  0.4166666666666667  0.7500000000000000  0.4999999999999999   T   T   T
  0.5833333333333334  0.7500000000000000  0.4999999999999999   T   T   T
  0.3333333333333334  0.5000000000000000  0.4597064180250463   F   F   F
  0.3333333333333334  0.5000000000000000  0.5402935819749537   T   T   T
  0.5833333333333334  0.7500000000000000  0.5805871639499074   T   T   T
  0.4166666666666668  0.7500000000000000  0.5805871639499074   T   T   T
  0.5000000000000001  0.5000000000000000  0.5402935819749537   T   T   T
  0.6666666666666667  0.0000000000000000  0.3791192540751390   F   F   F
  0.9166666666666666  0.2500000000000000  0.4194128360500927   F   F   F
  0.7500000000000000  0.2500000000000000  0.4194128360500927   F   F   F
  0.8333333333333334  0.0000000000000000  0.3791192540751390   F   F   F
  0.8333333333333334  0.0000000000000000  0.4597064180250463   F   F   F
  0.7500000000000000  0.2500000000000000  0.4999999999999999   T   T   T
  0.9166666666666666  0.2500000000000000  0.4999999999999999   T   T   T
  0.6666666666666667  0.0000000000000000  0.4597064180250463   F   F   F
  0.6666666666666667  0.0000000000000000  0.5402935819749537   T   T   T
  0.9166666666666666  0.2500000000000000  0.5805871639499074   T   T   T
  0.7500000000000001  0.2500000000000000  0.5805871639499074   T   T   T
  0.8333333333333336  0.0000000000000000  0.5402935819749537   T   T   T
  0.6666666666666667  0.5000000000000000  0.3791192540751390   F   F   F
  0.9166666666666666  0.7500000000000000  0.4194128360500927   F   F   F
  0.7500000000000000  0.7500000000000000  0.4194128360500927   F   F   F
  0.8333333333333334  0.5000000000000000  0.3791192540751390   F   F   F
  0.8333333333333334  0.5000000000000000  0.4597064180250463   F   F   F
  0.7500000000000000  0.7500000000000000  0.4999999999999999   T   T   T
  0.9166666666666666  0.7500000000000000  0.4999999999999999   T   T   T
  0.6666666666666667  0.5000000000000000  0.4597064180250463   F   F   F
  0.6666666666666667  0.5000000000000000  0.5402935819749537   T   T   T
  0.9166666666666666  0.7500000000000000  0.5805871639499074   T   T   T
  0.7500000000000001  0.7500000000000000  0.5805871639499074   T   T   T
  0.8333333333333336  0.5000000000000000  0.5402935819749537   T   T   T
  0.0000000000000000  0.3750000000000000  0.4194128360500927   F   F   F
  0.1666666666666667  0.1250000000000000  0.4194128360500927   F   F   F
  0.0833333333333334  0.1250000000000000  0.3791192540751390   F   F   F
  0.2500000000000000  0.3750000000000000  0.6208807459248611   T   T   T
  0.0833333333333334  0.3750000000000000  0.3791192540751390   F   F   F
  0.1666666666666667  0.3750000000000000  0.4194128360500927   F   F   F
  0.0000000000000000  0.1250000000000000  0.4194128360500927   F   F   F
  0.1666666666666667  0.3750000000000000  0.4999999999999999   T   T   T
  0.0000000000000001  0.1250000000000000  0.4999999999999999   T   T   T
  0.2500000000000001  0.1250000000000000  0.4597064180250463   F   F   F
  0.0833333333333333  0.3750000000000000  0.4597064180250463   F   F   F
  0.0833333333333333  0.1250000000000000  0.4597064180250463   F   F   F
  0.2500000000000001  0.3750000000000000  0.4597064180250463   F   F   F
  0.0000000000000001  0.3750000000000000  0.4999999999999999   T   T   T
  0.1666666666666667  0.1250000000000000  0.4999999999999999   T   T   T
  0.0000000000000000  0.3750000000000000  0.5805871639499074   T   T   T
  0.1666666666666667  0.1250000000000000  0.5805871639499074   T   T   T
  0.0833333333333333  0.1250000000000000  0.5402935819749536   T   T   T
  0.2500000000000000  0.3750000000000000  0.5402935819749537   T   T   T
  0.2500000000000000  0.1250000000000000  0.5402935819749537   T   T   T
  0.0833333333333333  0.3750000000000000  0.5402935819749536   T   T   T
  0.1666666666666667  0.3750000000000000  0.5805871639499074   T   T   T
  0.0000000000000000  0.1250000000000000  0.5805871639499074   T   T   T
  0.0000000000000000  0.8750000000000000  0.4194128360500927   F   F   F
  0.1666666666666667  0.6250000000000001  0.4194128360500927   F   F   F
  0.0833333333333334  0.6250000000000001  0.3791192540751390   F   F   F
  0.2500000000000000  0.8750000000000000  0.6208807459248611   T   T   T
  0.2500000000000000  0.6250000000000001  0.6208807459248611   T   T   T
  0.0833333333333334  0.8750000000000000  0.3791192540751390   F   F   F
  0.1666666666666667  0.8750000000000000  0.4194128360500927   F   F   F
  0.0000000000000000  0.6250000000000001  0.4194128360500927   F   F   F
  0.1666666666666667  0.8750000000000000  0.4999999999999999   T   T   T
  0.0000000000000001  0.6250000000000001  0.4999999999999999   T   T   T
  0.2500000000000001  0.6250000000000001  0.4597064180250463   F   F   F
  0.0833333333333333  0.8750000000000000  0.4597064180250463   F   F   F
  0.0833333333333333  0.6250000000000001  0.4597064180250463   F   F   F
  0.2500000000000001  0.8750000000000000  0.4597064180250463   F   F   F
  0.0000000000000001  0.8750000000000000  0.4999999999999999   T   T   T
  0.1666666666666667  0.6250000000000001  0.4999999999999999   T   T   T
  0.0000000000000000  0.8750000000000000  0.5805871639499074   T   T   T
  0.1666666666666667  0.6250000000000001  0.5805871639499074   T   T   T
  0.0833333333333333  0.6250000000000001  0.5402935819749536   T   T   T
  0.2500000000000000  0.8750000000000000  0.5402935819749537   T   T   T
  0.2500000000000000  0.6250000000000001  0.5402935819749537   T   T   T
  0.0833333333333333  0.8750000000000000  0.5402935819749536   T   T   T
  0.1666666666666667  0.8750000000000000  0.5805871639499074   T   T   T
  0.0000000000000000  0.6250000000000001  0.5805871639499074   T   T   T
  0.3333333333333334  0.3750000000000000  0.4194128360500927   F   F   F
  0.5000000000000000  0.1250000000000000  0.4194128360500927   F   F   F
  0.4166666666666667  0.1250000000000000  0.3791192540751390   F   F   F
  0.5833333333333334  0.3750000000000000  0.6208807459248611   T   T   T
  0.5833333333333334  0.1250000000000000  0.6208807459248611   T   T   T
  0.4166666666666667  0.3750000000000000  0.3791192540751390   F   F   F
  0.5000000000000000  0.3750000000000000  0.4194128360500927   F   F   F
  0.3333333333333334  0.1250000000000000  0.4194128360500927   F   F   F
  0.5000000000000001  0.3750000000000000  0.4999999999999999   T   T   T
  0.3333333333333334  0.1250000000000000  0.4999999999999999   T   T   T
  0.5833333333333334  0.1250000000000000  0.4597064180250463   F   F   F
  0.4166666666666667  0.3750000000000000  0.4597064180250463   F   F   F
  0.4166666666666667  0.1250000000000000  0.4597064180250463   F   F   F
  0.5833333333333334  0.3750000000000000  0.4597064180250463   F   F   F
  0.3333333333333334  0.3750000000000000  0.4999999999999999   T   T   T
  0.5000000000000001  0.1250000000000000  0.4999999999999999   T   T   T
  0.3333333333333334  0.3750000000000000  0.5805871639499074   T   T   T
  0.5000000000000000  0.1250000000000000  0.5805871639499074   T   T   T
  0.4166666666666667  0.1250000000000000  0.5402935819749536   T   T   T
  0.5833333333333334  0.3750000000000000  0.5402935819749537   T   T   T
  0.5833333333333334  0.1250000000000000  0.5402935819749537   T   T   T
  0.4166666666666667  0.3750000000000000  0.5402935819749536   T   T   T
  0.5000000000000000  0.3750000000000000  0.5805871639499074   T   T   T
  0.3333333333333334  0.1250000000000000  0.5805871639499074   T   T   T
  0.3333333333333334  0.8750000000000000  0.4194128360500927   F   F   F
  0.5000000000000000  0.6250000000000001  0.4194128360500927   F   F   F
  0.4166666666666667  0.6250000000000001  0.3791192540751390   F   F   F
  0.5833333333333334  0.8750000000000000  0.6208807459248611   T   T   T
  0.5833333333333334  0.6250000000000001  0.6208807459248611   T   T   T
  0.4166666666666667  0.8750000000000000  0.3791192540751390   F   F   F
  0.5000000000000000  0.8750000000000000  0.4194128360500927   F   F   F
  0.3333333333333334  0.6250000000000001  0.4194128360500927   F   F   F
  0.5000000000000001  0.8750000000000000  0.4999999999999999   T   T   T
  0.3333333333333334  0.6250000000000001  0.4999999999999999   T   T   T
  0.5833333333333334  0.6250000000000001  0.4597064180250463   F   F   F
  0.4166666666666667  0.8750000000000000  0.4597064180250463   F   F   F
  0.4166666666666667  0.6250000000000001  0.4597064180250463   F   F   F
  0.5833333333333334  0.8750000000000000  0.4597064180250463   F   F   F
  0.3333333333333334  0.8750000000000000  0.4999999999999999   T   T   T
  0.5000000000000001  0.6250000000000001  0.4999999999999999   T   T   T
  0.3333333333333334  0.8750000000000000  0.5805871639499074   T   T   T
  0.5000000000000000  0.6250000000000001  0.5805871639499074   T   T   T
  0.4166666666666667  0.6250000000000001  0.5402935819749536   T   T   T
  0.5833333333333334  0.8750000000000000  0.5402935819749537   T   T   T
  0.5833333333333334  0.6250000000000001  0.5402935819749537   T   T   T
  0.4166666666666667  0.8750000000000000  0.5402935819749536   T   T   T
  0.5000000000000000  0.8750000000000000  0.5805871639499074   T   T   T
  0.3333333333333334  0.6250000000000001  0.5805871639499074   T   T   T
  0.6666666666666667  0.3750000000000000  0.4194128360500927   F   F   F
  0.8333333333333334  0.1250000000000000  0.4194128360500927   F   F   F
  0.7500000000000000  0.1250000000000000  0.3791192540751390   F   F   F
  0.9166666666666666  0.3750000000000000  0.6208807459248611   T   T   T
  0.9166666666666666  0.1250000000000000  0.6208807459248611   T   T   T
  0.7500000000000000  0.3750000000000000  0.3791192540751390   F   F   F
  0.8333333333333334  0.3750000000000000  0.4194128360500927   F   F   F
  0.6666666666666667  0.1250000000000000  0.4194128360500927   F   F   F
  0.8333333333333334  0.3750000000000000  0.4999999999999999   T   T   T
  0.6666666666666667  0.1250000000000000  0.4999999999999999   T   T   T
  0.9166666666666669  0.1250000000000000  0.4597064180250463   F   F   F
  0.7500000000000000  0.3750000000000000  0.4597064180250463   F   F   F
  0.7500000000000000  0.1250000000000000  0.4597064180250463   F   F   F
  0.9166666666666669  0.3750000000000000  0.4597064180250463   F   F   F
  0.6666666666666667  0.3750000000000000  0.4999999999999999   T   T   T
  0.8333333333333334  0.1250000000000000  0.4999999999999999   T   T   T
  0.6666666666666667  0.3750000000000000  0.5805871639499074   T   T   T
  0.8333333333333334  0.1250000000000000  0.5805871639499074   T   T   T
  0.7500000000000000  0.1250000000000000  0.5402935819749536   T   T   T
  0.9166666666666666  0.3750000000000000  0.5402935819749537   T   T   T
  0.9166666666666666  0.1250000000000000  0.5402935819749537   T   T   T
  0.7500000000000000  0.3750000000000000  0.5402935819749536   T   T   T
  0.8333333333333334  0.3750000000000000  0.5805871639499074   T   T   T
  0.6666666666666667  0.1250000000000000  0.5805871639499074   T   T   T
  0.6666666666666667  0.8750000000000000  0.4194128360500927   F   F   F
  0.8333333333333334  0.6250000000000001  0.4194128360500927   F   F   F
  0.7500000000000000  0.6250000000000001  0.3791192540751390   F   F   F
  0.9166666666666666  0.8750000000000000  0.6208807459248611   T   T   T
  0.9166666666666666  0.6250000000000001  0.6208807459248611   T   T   T
  0.7500000000000000  0.8750000000000000  0.3791192540751390   F   F   F
  0.8333333333333334  0.8750000000000000  0.4194128360500927   F   F   F
  0.6666666666666667  0.6250000000000001  0.4194128360500927   F   F   F
  0.8333333333333334  0.8750000000000000  0.4999999999999999   T   T   T
  0.6666666666666667  0.6250000000000001  0.4999999999999999   T   T   T
  0.9166666666666669  0.6250000000000001  0.4597064180250463   F   F   F
  0.7500000000000000  0.8750000000000000  0.4597064180250463   F   F   F
  0.7500000000000000  0.6250000000000001  0.4597064180250463   F   F   F
  0.9166666666666669  0.8750000000000000  0.4597064180250463   F   F   F
  0.6666666666666667  0.8750000000000000  0.4999999999999999   T   T   T
  0.8333333333333334  0.6250000000000001  0.4999999999999999   T   T   T
  0.6666666666666667  0.8750000000000000  0.5805871639499074   T   T   T
  0.8333333333333334  0.6250000000000001  0.5805871639499074   T   T   T
  0.7500000000000000  0.6250000000000001  0.5402935819749536   T   T   T
  0.9166666666666666  0.8750000000000000  0.5402935819749537   T   T   T
  0.9166666666666666  0.6250000000000001  0.5402935819749537   T   T   T
  0.7500000000000000  0.8750000000000000  0.5402935819749536   T   T   T
  0.8333333333333334  0.8750000000000000  0.5805871639499074   T   T   T
  0.6666666666666667  0.6250000000000001  0.5805871639499074   T   T   T
  0.2500000000000000  0.1250000000000000  0.7110268796716164   T   T   T
  0.2500000000000000  0.3750000000000000  0.6415216830911742   T   T   T
  0.5833333333333334  0.8750000000000000  0.6415216830911742   T   T   T
  0.9166666666666666  0.1250000000000000  0.6415216830911742   T   T   T
  0.2500000000000000  0.8750000000000000  0.6415216830911742   T   T   T
