LAMMPS (4 Jul 2026)
OMP_NUM_THREADS environment is not set. Defaulting to 1 thread.
  using 1 OpenMP thread(s) per MPI task
Loaded 1 plugins from D:\LAMMPS 64-bit 4Jul2026-MSMPI\plugins
# Generated production protocol. Supply validated topology and force-field files before running.
clear
OMP_NUM_THREADS environment is not set. Defaulting to 1 thread.
  using 1 OpenMP thread(s) per MPI task
Restoring plugin: Hello world command v1.1 by Axel Kohlmeyer (akohlmey@gmail.com)
WARNING: Overriding built-in command style hello from plugin (src/PLUGIN/plugin.cpp:556)
Loaded 1 plugins from D:\LAMMPS 64-bit 4Jul2026-MSMPI\plugins
units real
atom_style full
boundary p p p
read_data system.data
Reading data file ...
  orthogonal box = (0 0 0) to (90 90 90)
  1 by 1 by 1 MPI processor grid
ERROR: Must define pair_style before Pair Coeffs (src/read_data.cpp:808)
Last input line: read_data system.data 
                           ^^^^^^^^^^^
