Ce O  C  N  H 
 1.0000000000000000
    22.9569287580024479    0.0000000000000000    0.0000000000000000
    11.4784643790012257   19.8812834972996626    0.0000000000000000
     0.0000000000000000    0.0000000000000000   44.5911163431089221
 Ce  O   C   N   H  
 108 224  32   4  38
Selective dynamics
Direct
  0.0000000000000000  0.0000000000000000  0.4036678485799270   F   F   F
  0.0000000000000000  0.1666666666666667  0.4036678485799270   F   F   F
  0.1666666666666667  0.0000000000000000  0.4036678485799270   F   F   F
  0.1666666666666667  0.1666666666666667  0.4036678485799270   F   F   F
  0.2222222222222222  0.2222222222222222  0.4737275950672529   T   T   T
  0.2222222222222222  0.0555555555555555  0.4737275950672529   T   T   T
  0.0555555555555555  0.2222222222222222  0.4737275950672529   T   T   T
  0.0555555555555555  0.0555555555555555  0.4737275950672529   T   T   T
  0.1111111111111111  0.1111111111111111  0.5437873415545788   T   T   T
  0.1111111111111111  0.2777777777777777  0.5437873415545788   T   T   T
  0.2777777777777778  0.1111111111111110  0.5437873415545788   T   T   T
  0.2777777777777778  0.2777777777777777  0.5437873415545788   T   T   T
  0.0000000000000000  0.3333333333333333  0.4036678485799270   F   F   F
  0.0000000000000000  0.5000000000000000  0.4036678485799270   F   F   F
  0.1666666666666667  0.3333333333333333  0.4036678485799270   F   F   F
  0.1666666666666667  0.5000000000000000  0.4036678485799270   F   F   F
  0.2222222222222223  0.5555555555555555  0.4737275950672529   T   T   T
  0.2222222222222222  0.3888888888888888  0.4737275950672529   T   T   T
  0.0555555555555556  0.5555555555555555  0.4737275950672529   T   T   T
  0.0555555555555555  0.3888888888888888  0.4737275950672529   T   T   T
  0.1111111111111111  0.4444444444444444  0.5437873415545788   T   T   T
  0.1111111111111111  0.6111111111111110  0.5437873415545788   T   T   T
  0.2777777777777778  0.4444444444444444  0.5437873415545788   T   T   T
  0.2777777777777778  0.6111111111111110  0.5437873415545788   T   T   T
  0.0000000000000000  0.6666666666666666  0.4036678485799270   F   F   F
  0.0000000000000000  0.8333333333333333  0.4036678485799270   F   F   F
  0.1666666666666667  0.6666666666666666  0.4036678485799270   F   F   F
  0.1666666666666667  0.8333333333333333  0.4036678485799270   F   F   F
  0.2222222222222223  0.8888888888888887  0.4737275950672529   T   T   T
  0.2222222222222223  0.7222222222222221  0.4737275950672529   T   T   T
  0.0555555555555556  0.8888888888888887  0.4737275950672529   T   T   T
  0.0555555555555556  0.7222222222222221  0.4737275950672529   T   T   T
  0.1111111111111111  0.7777777777777777  0.5437873415545788   T   T   T
  0.1111111111111111  0.9444444444444444  0.5437873415545788   T   T   T
  0.2777777777777778  0.7777777777777777  0.5437873415545788   T   T   T
  0.2777777777777778  0.9444444444444443  0.5437873415545788   T   T   T
  0.3333333333333334  0.0000000000000000  0.4036678485799270   F   F   F
  0.3333333333333334  0.1666666666666667  0.4036678485799270   F   F   F
  0.5000000000000000  0.0000000000000000  0.4036678485799270   F   F   F
  0.5000000000000000  0.1666666666666667  0.4036678485799270   F   F   F
  0.5555555555555556  0.2222222222222222  0.4737275950672529   T   T   T
  0.5555555555555556  0.0555555555555555  0.4737275950672529   T   T   T
  0.3888888888888888  0.2222222222222222  0.4737275950672529   T   T   T
  0.3888888888888888  0.0555555555555555  0.4737275950672529   T   T   T
  0.4444444444444444  0.1111111111111111  0.5437873415545788   T   T   T
  0.4444444444444444  0.2777777777777777  0.5437873415545788   T   T   T
  0.6111111111111112  0.1111111111111110  0.5437873415545788   T   T   T
  0.6111111111111112  0.2777777777777777  0.5437873415545788   T   T   T
  0.3333333333333334  0.3333333333333333  0.4036678485799270   F   F   F
  0.3333333333333334  0.5000000000000000  0.4036678485799270   F   F   F
  0.5000000000000000  0.3333333333333333  0.4036678485799270   F   F   F
  0.5000000000000001  0.5000000000000000  0.4036678485799270   F   F   F
  0.5555555555555556  0.5555555555555555  0.4737275950672529   T   T   T
  0.5555555555555556  0.3888888888888888  0.4737275950672529   T   T   T
  0.3888888888888889  0.5555555555555555  0.4737275950672529   T   T   T
  0.3888888888888888  0.3888888888888888  0.4737275950672529   T   T   T
  0.4444444444444445  0.4444444444444444  0.5437873415545788   T   T   T
  0.4444444444444444  0.6111111111111110  0.5437873415545788   T   T   T
  0.6111111111111112  0.4444444444444444  0.5437873415545788   T   T   T
  0.6111111111111112  0.6111111111111110  0.5437873415545788   T   T   T
  0.3333333333333334  0.6666666666666666  0.4036678485799270   F   F   F
  0.3333333333333333  0.8333333333333333  0.4036678485799270   F   F   F
  0.5000000000000000  0.6666666666666666  0.4036678485799270   F   F   F
  0.5000000000000000  0.8333333333333333  0.4036678485799270   F   F   F
  0.5555555555555556  0.8888888888888887  0.4737275950672529   T   T   T
  0.5555555555555556  0.7222222222222221  0.4737275950672529   T   T   T
  0.3888888888888890  0.8888888888888887  0.4737275950672529   T   T   T
  0.3888888888888889  0.7222222222222221  0.4737275950672529   T   T   T
  0.4444444444444445  0.7777777777777777  0.5437873415545788   T   T   T
  0.4444444444444444  0.9444444444444444  0.5437873415545788   T   T   T
  0.6111111111111110  0.7777777777777777  0.5437873415545788   T   T   T
  0.6111111111111112  0.9444444444444443  0.5437873415545788   T   T   T
  0.6666666666666667  0.0000000000000000  0.4036678485799270   F   F   F
  0.6666666666666666  0.1666666666666667  0.4036678485799270   F   F   F
  0.8333333333333334  0.0000000000000000  0.4036678485799270   F   F   F
  0.8333333333333334  0.1666666666666667  0.4036678485799270   F   F   F
  0.8888888888888888  0.2222222222222222  0.4737275950672529   T   T   T
  0.8888888888888890  0.0555555555555555  0.4737275950672529   T   T   T
  0.7222222222222222  0.2222222222222222  0.4737275950672529   T   T   T
  0.7222222222222222  0.0555555555555555  0.4737275950672529   T   T   T
  0.7777777777777778  0.1111111111111111  0.5437873415545788   T   T   T
  0.7777777777777778  0.2777777777777777  0.5437873415545788   T   T   T
  0.9444444444444444  0.1111111111111110  0.5437873415545788   T   T   T
  0.9444444444444445  0.2777777777777777  0.5437873415545788   T   T   T
  0.6666666666666667  0.3333333333333333  0.4036678485799270   F   F   F
  0.6666666666666667  0.5000000000000000  0.4036678485799270   F   F   F
  0.8333333333333334  0.3333333333333333  0.4036678485799270   F   F   F
  0.8333333333333334  0.5000000000000000  0.4036678485799270   F   F   F
  0.8888888888888892  0.5555555555555555  0.4737275950672529   T   T   T
  0.8888888888888890  0.3888888888888888  0.4737275950672529   T   T   T
  0.7222222222222222  0.5555555555555555  0.4737275950672529   T   T   T
  0.7222222222222222  0.3888888888888888  0.4737275950672529   T   T   T
  0.7777777777777777  0.4444444444444444  0.5437873415545788   T   T   T
  0.7777777777777778  0.6111111111111110  0.5437873415545788   T   T   T
  0.9444444444444445  0.4444444444444444  0.5437873415545788   T   T   T
  0.9444444444444444  0.6111111111111110  0.5437873415545788   T   T   T
  0.6666666666666667  0.6666666666666666  0.4036678485799270   F   F   F
  0.6666666666666667  0.8333333333333333  0.4036678485799270   F   F   F
  0.8333333333333334  0.6666666666666666  0.4036678485799270   F   F   F
  0.8333333333333334  0.8333333333333333  0.4036678485799270   F   F   F
  0.8888888888888890  0.8888888888888887  0.4737275950672529   T   T   T
  0.8888888888888892  0.7222222222222221  0.4737275950672529   T   T   T
  0.7222222222222224  0.8888888888888887  0.4737275950672529   T   T   T
  0.7222222222222222  0.7222222222222221  0.4737275950672529   T   T   T
  0.7777777777777780  0.7777777777777777  0.5437873415545788   T   T   T
  0.7777777777777778  0.9444444444444444  0.5437873415545788   T   T   T
  0.9444444444444445  0.7777777777777777  0.5437873415545788   T   T   T
  0.9444444444444445  0.9444444444444443  0.5437873415545788   T   T   T
  0.3333333333333334  0.3333333333333333  0.4562126584454214   F   F   F
  0.2222222222222222  0.2222222222222222  0.4211827852017584   F   F   F
  0.3333333333333333  0.1666666666666666  0.4562126584454214   F   F   F
  0.2222222222222222  0.0555555555555555  0.4211827852017584   F   F   F
  0.1666666666666666  0.0000000000000000  0.4562126584454214   F   F   F
  0.0555555555555556  0.2222222222222222  0.4211827852017584   F   F   F
  0.1666666666666666  0.1666666666666666  0.4562126584454214   F   F   F
  0.0555555555555556  0.0555555555555555  0.4211827852017584   F   F   F
  0.2222222222222222  0.2222222222222221  0.5262724049327473   T   T   T
  0.1111111111111111  0.1111111111111110  0.4912425316890843   T   T   T
  0.2222222222222222  0.0555555555555555  0.5262724049327473   T   T   T
  0.1111111111111111  0.2777777777777777  0.4912425316890843   T   T   T
  0.0555555555555555  0.2222222222222222  0.5262724049327473   T   T   T
  0.2777777777777778  0.1111111111111110  0.4912425316890843   T   T   T
  0.0555555555555555  0.0555555555555555  0.5262724049327473   T   T   T
  0.2777777777777778  0.2777777777777777  0.4912425316890843   T   T   T
  0.1111111111111110  0.1111111111111110  0.5963321514200731   T   T   T
  0.0000000000000000  0.3333333333333332  0.5613022781764102   T   T   T
  0.1111111111111112  0.2777777777777777  0.5963321514200731   T   T   T
  0.3333333333333333  0.1666666666666666  0.5613022781764102   T   T   T
  0.2777777777777778  0.1111111111111110  0.5963321514200731   T   T   T
  0.1666666666666667  0.3333333333333332  0.5613022781764102   T   T   T
  0.2777777777777778  0.2777777777777777  0.5963321514200731   T   T   T
  0.1666666666666667  0.1666666666666666  0.5613022781764102   T   T   T
  0.3333333333333334  0.6666666666666665  0.4562126584454214   F   F   F
  0.2222222222222223  0.5555555555555555  0.4211827852017584   F   F   F
  0.3333333333333334  0.4999999999999999  0.4562126584454214   F   F   F
  0.2222222222222222  0.3888888888888888  0.4211827852017584   F   F   F
  0.1666666666666667  0.3333333333333333  0.4562126584454214   F   F   F
  0.0555555555555556  0.5555555555555555  0.4211827852017584   F   F   F
  0.1666666666666666  0.4999999999999999  0.4562126584454214   F   F   F
  0.0555555555555556  0.3888888888888888  0.4211827852017584   F   F   F
  0.2222222222222222  0.5555555555555555  0.5262724049327473   T   T   T
  0.1111111111111111  0.4444444444444444  0.4912425316890843   T   T   T
  0.2222222222222223  0.3888888888888888  0.5262724049327473   T   T   T
  0.1111111111111111  0.6111111111111110  0.4912425316890843   T   T   T
  0.0555555555555556  0.5555555555555555  0.5262724049327473   T   T   T
  0.2777777777777779  0.4444444444444443  0.4912425316890843   T   T   T
  0.0555555555555555  0.3888888888888888  0.5262724049327473   T   T   T
  0.2777777777777778  0.6111111111111110  0.4912425316890843   T   T   T
  0.1111111111111111  0.4444444444444444  0.5963321514200731   T   T   T
  0.0000000000000000  0.6666666666666665  0.5613022781764102   T   T   T
  0.1111111111111111  0.6111111111111110  0.5963321514200731   T   T   T
  0.3333333333333333  0.4999999999999999  0.5613022781764102   T   T   T
  0.2777777777777778  0.4444444444444444  0.5963321514200731   T   T   T
  0.1666666666666667  0.6666666666666665  0.5613022781764102   T   T   T
  0.2777777777777778  0.6111111111111110  0.5963321514200731   T   T   T
  0.1666666666666667  0.4999999999999999  0.5613022781764102   T   T   T
  0.3333333333333334  1.0000000000000000  0.4562126584454214   F   F   F
  0.2222222222222223  0.8888888888888887  0.4211827852017584   F   F   F
  0.3333333333333333  0.8333333333333333  0.4562126584454214   F   F   F
  0.2222222222222223  0.7222222222222221  0.4211827852017584   F   F   F
  0.1666666666666666  0.6666666666666666  0.4562126584454214   F   F   F
  0.0555555555555556  0.8888888888888887  0.4211827852017584   F   F   F
  0.1666666666666666  0.8333333333333333  0.4562126584454214   F   F   F
  0.0555555555555556  0.7222222222222221  0.4211827852017584   F   F   F
  0.2222222222222223  0.8888888888888887  0.5262724049327473   T   T   T
  0.1111111111111111  0.7777777777777777  0.4912425316890843   T   T   T
  0.2222222222222223  0.7222222222222221  0.5262724049327473   T   T   T
  0.1111111111111111  0.9444444444444444  0.4912425316890843   T   T   T
  0.0555555555555556  0.8888888888888887  0.5262724049327473   T   T   T
  0.2777777777777778  0.7777777777777777  0.4912425316890843   T   T   T
  0.0555555555555556  0.7222222222222221  0.5262724049327473   T   T   T
  0.2777777777777778  0.9444444444444444  0.4912425316890843   T   T   T
  0.1111111111111111  0.7777777777777777  0.5963321514200731   T   T   T
  0.0000000000000001  0.9999999999999998  0.5613022781764102   T   T   T
  0.1111111111111112  0.9444444444444443  0.5963321514200731   T   T   T
  0.3333333333333333  0.8333333333333333  0.5613022781764102   T   T   T
  0.2777777777777778  0.7777777777777777  0.5963321514200731   T   T   T
  0.1666666666666667  0.9999999999999998  0.5613022781764102   T   T   T
  0.2777777777777778  0.9444444444444443  0.5963321514200731   T   T   T
  0.1666666666666667  0.8333333333333333  0.5613022781764102   T   T   T
  0.6666666666666667  0.3333333333333333  0.4562126584454214   F   F   F
  0.5555555555555556  0.2222222222222222  0.4211827852017584   F   F   F
  0.6666666666666667  0.1666666666666666  0.4562126584454214   F   F   F
  0.5555555555555556  0.0555555555555555  0.4211827852017584   F   F   F
  0.5000000000000000  0.0000000000000000  0.4562126584454214   F   F   F
  0.3888888888888888  0.2222222222222222  0.4211827852017584   F   F   F
  0.5000000000000000  0.1666666666666666  0.4562126584454214   F   F   F
  0.3888888888888889  0.0555555555555555  0.4211827852017584   F   F   F
  0.5555555555555556  0.2222222222222221  0.5262724049327473   T   T   T
  0.4444444444444444  0.1111111111111110  0.4912425316890843   T   T   T
  0.5555555555555556  0.0555555555555555  0.5262724049327473   T   T   T
  0.4444444444444444  0.2777777777777777  0.4912425316890843   T   T   T
  0.3888888888888888  0.2222222222222222  0.5262724049327473   T   T   T
  0.6111111111111112  0.1111111111111110  0.4912425316890843   T   T   T
  0.3888888888888888  0.0555555555555555  0.5262724049327473   T   T   T
  0.6111111111111112  0.2777777777777777  0.4912425316890843   T   T   T
  0.4444444444444444  0.1111111111111110  0.5963321514200731   T   T   T
  0.3333333333333334  0.3333333333333332  0.5613022781764102   T   T   T
  0.4444444444444446  0.2777777777777777  0.5963321514200731   T   T   T
  0.6666666666666667  0.1666666666666666  0.5613022781764102   T   T   T
  0.6111111111111112  0.1111111111111110  0.5963321514200731   T   T   T
  0.5000000000000000  0.3333333333333332  0.5613022781764102   T   T   T
  0.6111111111111112  0.2777777777777777  0.5963321514200731   T   T   T
  0.5000000000000000  0.1666666666666666  0.5613022781764102   T   T   T
  0.6666666666666667  0.6666666666666665  0.4562126584454214   F   F   F
  0.5555555555555556  0.5555555555555555  0.4211827852017584   F   F   F
  0.6666666666666667  0.4999999999999999  0.4562126584454214   F   F   F
  0.5555555555555556  0.3888888888888888  0.4211827852017584   F   F   F
  0.5000000000000000  0.3333333333333333  0.4562126584454214   F   F   F
  0.3888888888888889  0.5555555555555555  0.4211827852017584   F   F   F
  0.5000000000000000  0.4999999999999999  0.4562126584454214   F   F   F
  0.3888888888888890  0.3888888888888888  0.4211827852017584   F   F   F
  0.5555555555555556  0.5555555555555555  0.5262724049327473   T   T   T
  0.4444444444444445  0.4444444444444444  0.4912425316890843   T   T   T
  0.5555555555555556  0.3888888888888888  0.5262724049327473   T   T   T
  0.4444444444444444  0.6111111111111110  0.4912425316890843   T   T   T
  0.3888888888888889  0.5555555555555555  0.5262724049327473   T   T   T
  0.6111111111111113  0.4444444444444443  0.4912425316890843   T   T   T
  0.3888888888888889  0.3888888888888888  0.5262724049327473   T   T   T
  0.6111111111111113  0.6111111111111110  0.4912425316890843   T   T   T
  0.4444444444444444  0.4444444444444444  0.5963321514200731   T   T   T
  0.3333333333333334  0.6666666666666665  0.5613022781764102   T   T   T
  0.4444444444444446  0.6111111111111110  0.5963321514200731   T   T   T
  0.6666666666666665  0.4999999999999999  0.5613022781764102   T   T   T
  0.6111111111111112  0.4444444444444444  0.5963321514200731   T   T   T
  0.5000000000000001  0.6666666666666665  0.5613022781764102   T   T   T
  0.6111111111111112  0.6111111111111110  0.5963321514200731   T   T   T
  0.5000000000000000  0.4999999999999999  0.5613022781764102   T   T   T
  0.6666666666666666  1.0000000000000000  0.4562126584454214   F   F   F
  0.5555555555555556  0.8888888888888887  0.4211827852017584   F   F   F
  0.6666666666666667  0.8333333333333333  0.4562126584454214   F   F   F
  0.5555555555555556  0.7222222222222221  0.4211827852017584   F   F   F
  0.5000000000000000  0.6666666666666666  0.4562126584454214   F   F   F
  0.3888888888888890  0.8888888888888887  0.4211827852017584   F   F   F
  0.5000000000000000  0.8333333333333333  0.4562126584454214   F   F   F
  0.3888888888888889  0.7222222222222221  0.4211827852017584   F   F   F
  0.5555555555555556  0.8888888888888887  0.5262724049327473   T   T   T
  0.4444444444444443  0.7777777777777777  0.4912425316890843   T   T   T
  0.5555555555555556  0.7222222222222221  0.5262724049327473   T   T   T
  0.4444444444444444  0.9444444444444444  0.4912425316890843   T   T   T
  0.3888888888888890  0.8888888888888887  0.5262724049327473   T   T   T
  0.6111111111111112  0.7777777777777777  0.4912425316890843   T   T   T
  0.3888888888888889  0.7222222222222221  0.5262724049327473   T   T   T
  0.6111111111111112  0.9444444444444444  0.4912425316890843   T   T   T
  0.4444444444444443  0.7777777777777777  0.5963321514200731   T   T   T
  0.3333333333333334  0.9999999999999998  0.5613022781764102   T   T   T
  0.4444444444444445  0.9444444444444443  0.5963321514200731   T   T   T
  0.6666666666666665  0.8333333333333333  0.5613022781764102   T   T   T
  0.6111111111111110  0.7777777777777777  0.5963321514200731   T   T   T
  0.5000000000000000  0.9999999999999998  0.5613022781764102   T   T   T
  0.6111111111111112  0.9444444444444443  0.5963321514200731   T   T   T
  0.5000000000000000  0.8333333333333333  0.5613022781764102   T   T   T
  1.0000000000000000  0.3333333333333333  0.4562126584454214   F   F   F
  0.8888888888888888  0.2222222222222222  0.4211827852017584   F   F   F
  1.0000000000000000  0.1666666666666666  0.4562126584454214   F   F   F
  0.8888888888888890  0.0555555555555555  0.4211827852017584   F   F   F
  0.8333333333333334  0.0000000000000000  0.4562126584454214   F   F   F
  0.7222222222222222  0.2222222222222222  0.4211827852017584   F   F   F
  0.8333333333333334  0.1666666666666666  0.4562126584454214   F   F   F
  0.7222222222222222  0.0555555555555555  0.4211827852017584   F   F   F
  0.8888888888888888  0.2222222222222221  0.5262724049327473   T   T   T
  0.7777777777777777  0.1111111111111110  0.4912425316890843   T   T   T
  0.8888888888888890  0.0555555555555555  0.5262724049327473   T   T   T
  0.7777777777777778  0.2777777777777777  0.4912425316890843   T   T   T
  0.7222222222222222  0.2222222222222222  0.5262724049327473   T   T   T
  0.9444444444444445  0.1111111111111110  0.4912425316890843   T   T   T
  0.7222222222222222  0.0555555555555555  0.5262724049327473   T   T   T
  0.9444444444444445  0.2777777777777777  0.4912425316890843   T   T   T
  0.7777777777777777  0.1111111111111110  0.5963321514200731   T   T   T
  0.6666666666666667  0.3333333333333332  0.5613022781764102   T   T   T
  0.7777777777777778  0.2777777777777777  0.5963321514200731   T   T   T
  1.0000000000000000  0.1666666666666666  0.5613022781764102   T   T   T
  0.9444444444444444  0.1111111111111110  0.5963321514200731   T   T   T
  0.8333333333333334  0.3333333333333332  0.5613022781764102   T   T   T
  0.9444444444444445  0.2777777777777777  0.5963321514200731   T   T   T
  0.8333333333333334  0.1666666666666666  0.5613022781764102   T   T   T
  1.0000000000000000  0.6666666666666665  0.4562126584454214   F   F   F
  0.8888888888888892  0.5555555555555555  0.4211827852017584   F   F   F
  1.0000000000000000  0.4999999999999999  0.4562126584454214   F   F   F
  0.8888888888888890  0.3888888888888888  0.4211827852017584   F   F   F
  0.8333333333333333  0.3333333333333333  0.4562126584454214   F   F   F
  0.7222222222222222  0.5555555555555555  0.4211827852017584   F   F   F
  0.8333333333333334  0.4999999999999999  0.4562126584454214   F   F   F
  0.7222222222222222  0.3888888888888888  0.4211827852017584   F   F   F
  0.8888888888888888  0.5555555555555555  0.5262724049327473   T   T   T
  0.7777777777777777  0.4444444444444444  0.4912425316890843   T   T   T
  0.8888888888888890  0.3888888888888888  0.5262724049327473   T   T   T
  0.7777777777777778  0.6111111111111110  0.4912425316890843   T   T   T
  0.7222222222222222  0.5555555555555555  0.5262724049327473   T   T   T
  0.9444444444444446  0.4444444444444443  0.4912425316890843   T   T   T
  0.7222222222222222  0.3888888888888888  0.5262724049327473   T   T   T
  0.9444444444444445  0.6111111111111110  0.4912425316890843   T   T   T
  0.7777777777777777  0.4444444444444444  0.5963321514200731   T   T   T
  0.6666666666666669  0.6666666666666665  0.5613022781764102   T   T   T
  0.7777777777777778  0.6111111111111110  0.5963321514200731   T   T   T
  1.0000000000000000  0.4999999999999999  0.5613022781764102   T   T   T
  0.9444444444444445  0.4444444444444444  0.5963321514200731   T   T   T
  0.8333333333333336  0.6666666666666665  0.5613022781764102   T   T   T
  0.9444444444444444  0.6111111111111110  0.5963321514200731   T   T   T
  0.8333333333333334  0.4999999999999999  0.5613022781764102   T   T   T
  1.0000000000000000  1.0000000000000000  0.4562126584454214   F   F   F
  0.8888888888888890  0.8888888888888887  0.4211827852017584   F   F   F
  1.0000000000000000  0.8333333333333333  0.4562126584454214   F   F   F
  0.8888888888888892  0.7222222222222221  0.4211827852017584   F   F   F
  0.8333333333333334  0.6666666666666666  0.4562126584454214   F   F   F
  0.7222222222222224  0.8888888888888887  0.4211827852017584   F   F   F
  0.8333333333333334  0.8333333333333333  0.4562126584454214   F   F   F
  0.7222222222222222  0.7222222222222221  0.4211827852017584   F   F   F
  0.8888888888888890  0.8888888888888887  0.5262724049327473   T   T   T
  0.7777777777777777  0.7777777777777777  0.4912425316890843   T   T   T
  0.8888888888888892  0.7222222222222221  0.5262724049327473   T   T   T
  0.7777777777777778  0.9444444444444444  0.4912425316890843   T   T   T
  0.7222222222222224  0.8888888888888887  0.5262724049327473   T   T   T
  0.9444444444444445  0.7777777777777777  0.4912425316890843   T   T   T
  0.7222222222222222  0.7222222222222221  0.5262724049327473   T   T   T
  0.9444444444444445  0.9444444444444444  0.4912425316890843   T   T   T
  0.7777777777777777  0.7777777777777777  0.5963321514200731   T   T   T
  0.6666666666666669  0.9999999999999998  0.5613022781764102   T   T   T
  0.7777777777777780  0.9444444444444443  0.5963321514200731   T   T   T
  1.0000000000000000  0.8333333333333333  0.5613022781764102   T   T   T
  0.9444444444444445  0.7777777777777777  0.5963321514200731   T   T   T
  0.8333333333333334  0.9999999999999998  0.5613022781764102   T   T   T
  0.9444444444444445  0.9444444444444443  0.5963321514200731   T   T   T
  0.8333333333333334  0.8333333333333333  0.5613022781764102   T   T   T
  0.1118531558137506  0.6437713749094737  0.7095847126629020   T   T   T
  0.2349935697553836  0.6070115331972303  0.6820579113622206   T   T   T
  0.4717339286959928  0.3719713155537095  0.6516766570184918   T   T   T
  0.5407980117491691  0.4423713018988335  0.6603270651101715   T   T   T
  0.4808262195914753  0.7100172778075128  0.6728130148415862   T   T   T
  0.5899890073459806  0.6663136650944238  0.7099105805926454   T   T   T
  0.6860061479266607  0.5282009161922919  0.8214331723363244   T   T   T
  0.8138025507711032  0.4865481892842116  0.7965031977772450   T   T   T
  0.3545094868142153  0.3609202025651687  0.7584822392083671   T   T   T
  0.3524195562841101  0.4286180762159608  0.7608032843238686   T   T   T
  0.2903642912833802  0.4855934365871711  0.7461142514371246   T   T   T
  0.2274500855264723  0.5059406801651316  0.7592194825649641   T   T   T
  0.1688536589910994  0.5584144256739847  0.7469461845077857   T   T   T
  0.1716626010125913  0.5918144736471196  0.7213573341198958   T   T   T
  0.2339207354945757  0.5730091551068497  0.7078821167823763   T   T   T
  0.2939108711743647  0.5204495330919118  0.7204661904162251   T   T   T
  0.3665580710370353  0.5845353586838452  0.7650918067543437   T   T   T
  0.3630224163080774  0.5995687576384490  0.7312898592928039   T   T   T
  0.3939866273727594  0.5371956380647115  0.7112186023235834   T   T   T
  0.3594355806385959  0.5011534087569549  0.7061686247521081   T   T   T
  0.3859501596249580  0.4465708562748487  0.6863529963259997   T   T   T
  0.4463769281232605  0.4263855099295419  0.6713817186634643   T   T   T
  0.4812793361160569  0.4611055729090239  0.6759693984590136   T   T   T
  0.4561795291092865  0.5157156579515074  0.6960637259024582   T   T   T
  0.6463605649200016  0.4023530999567088  0.7191961186484392   T   T   T
  0.5810371174397997  0.4568906699798507  0.7335794119213330   T   T   T
  0.5538120172596828  0.5248484686900605  0.7180341832196372   T   T   T
  0.4950432348442767  0.5510130620532580  0.6999231053745282   T   T   T
  0.4725354953165834  0.6116207864739809  0.6844637762726851   T   T   T
  0.5047999858205503  0.6489595526184467  0.6878166456281178   T   T   T
  0.5609719985073198  0.6257536545131160  0.7064077129622028   T   T   T
  0.5868164624842118  0.5630920231598556  0.7212207066514237   T   T   T
  0.7875348830745570  0.4523810889178356  0.6821532104128272   T   T   T
  0.7228936432884761  0.5138351948343054  0.6937234437565640   T   T   T
  0.7126249913320317  0.5159318908109054  0.7275542766806860   T   T   T
  0.6478450933756349  0.5388370707122743  0.7401567939472257   T   T   T
  0.6397732408664247  0.5428313207621126  0.7714199289472836   T   T   T
  0.6946645909931544  0.5247574045507102  0.7904122177440281   T   T   T
  0.7583112179158206  0.5038218422727815  0.7781433081428806   T   T   T
  0.7667822044654303  0.5004342672381588  0.7470379255493860   T   T   T
  0.3596860086742047  0.3396560527634733  0.7272772734119533   T   T   T
  0.4354121810173529  0.5430162141890927  0.7758465733583505   T   T   T
  0.6590516133149874  0.3356385464207882  0.7277706813894733   T   T   T
  0.7897163048107706  0.3897300820499248  0.6903175311569627   T   T   T
  0.3123337103063716  0.3678562824487487  0.7173238014124080   T   T   T
  0.3703375393729894  0.2897273827811023  0.7272123397931541   T   T   T
  0.3993475985933286  0.3227265414685526  0.7709911330353250   T   T   T
  0.3092755610420476  0.3638778610328748  0.7691307328544794   T   T   T
  0.3522102749142305  0.4408944573366690  0.7849321176327448   T   T   T
  0.3997311510125747  0.4229351163240726  0.7514056895701411   T   T   T
  0.2237366547338626  0.4811153952399341  0.7791803184665509   T   T   T
  0.1208442120015857  0.5731853127402589  0.7573756769950508   T   T   T
  0.1108452821236264  0.6698281454775018  0.6910729472303918   T   T   T
  0.2777936527246658  0.5958218512996689  0.6709433871941971   T   T   T
  0.4552772782360337  0.4948944704782957  0.7667214339816598   T   T   T
  0.4643890146382487  0.5638218782907688  0.7685985612156596   T   T   T
  0.3369459015324623  0.5600712878716760  0.7707297911580221   T   T   T
  0.3430584225085088  0.6330795011926019  0.7774340802124264   T   T   T
  0.3860111431387489  0.6313614594434386  0.7275289619047138   T   T   T
  0.3094267087112404  0.6322834697878766  0.7250508260849474   T   T   T
  0.3587200868513142  0.4202036944689359  0.6820788857163137   T   T   T
  0.4474421945237158  0.3459967597840630  0.6479299596906212   T   T   T
  0.5607935589940124  0.4034644711884469  0.6456693329131753   T   T   T
  0.6245036967815583  0.3264589739039020  0.7164632588524085   T   T   T
  0.7066096583762764  0.3004365645053452  0.7196562763183266   T   T   T
  0.6887492636984972  0.4082676115042136  0.7272403596374246   T   T   T
  0.6440176148644419  0.4070541108448787  0.6943534248624575   T   T   T
  0.5437516413763169  0.4397028516265373  0.7331887606393557   T   T   T
  0.5898823353825435  0.4613887285292086  0.7577057917174573   T   T   T
  0.4285755686723768  0.6306396080643808  0.6701664075687089   T   T   T
  0.4400486050546425  0.7284308545015271  0.6592145607653471   T   T   T
  0.6290271909552954  0.6548189228840279  0.7238736307587961   T   T   T
  0.8045255344719729  0.3792032024481811  0.7127602321381192   T   T   T
  0.8279858373143394  0.3509856301018899  0.6777950996835246   T   T   T
  0.7879237322026764  0.4559458098133545  0.6572810437606663   T   T   T
  0.8331978397180357  0.4524069061437377  0.6903848945143665   T   T   T
  0.7235047820687468  0.5601112576945237  0.6869900447903212   T   T   T
  0.6803644453023038  0.5141639927759937  0.6817199358008944   T   T   T
  0.5903239139675472  0.5608197758732617  0.7810451570383975   T   T   T
  0.6404662732838442  0.5433280717875033  0.8308528005442022   T   T   T
  0.8103389726109713  0.4882744102145253  0.8191668884423122   T   T   T
  0.8161277716564180  0.4858187679600102  0.7382881566926399   T   T   T
