 vasp.6.4.2 20Jul23 (build Aug 29 2026 11:11:35) complex                         
 executed on             LinuxGNU date 2026.09.23  14:42:06
 running    4 mpi-ranks, with    1 threads/rank, on    1 nodes
 distrk:  each k-point on    4 cores,    1 groups
 distr:  one band on NCORE=   2 cores,    2 groups


--------------------------------------------------------------------------------------------------------


 INCAR:
   SYSTEM = PDA@CeO2 production-baseline
   PREC = Accurate
   ENCUT = 520
   EDIFF = 1E-6
   EDIFFG = -0.02
   ISPIN = 2
   MAGMOM = 1 1 1 1 1 1 1 1 1 1 1 1 1 1 1 1 1 1 1 1 1 1 1 1 1 1 1 1 1 1 1 1 1 1 1 1 1 1 1 1 1 1 1 1 1 1 1 1 0 0 0 0 0 0 0 0 0 0 0 0 0 0 0 0 0 0 0 0 0 0 0 0 0 0 0 0 0 0 0 0 0 0 0 0 0 0 0 0 0 0 0 0 0 0 0 0 0 0 0 0 0 0 0 0 0 0 0 0 0 0 0 0 0 0 0 0 0 0 0 0 0 0 0 0 0 0 0 0 0 0 0 0 0 0 0 0 0 0 0 0 0 0 0 0 2 0 0 0 0 0 0
   ISMEAR = 0
   SIGMA = 0.05
   ALGO = Normal
   NELM = 160
   NELMDL = -5
   AMIX = 0.2
   BMIX = 0.0001
   AMIX_MAG = 0.8
   BMIX_MAG = 0.0001
   NCORE = 2
   KPAR = 1
   ISIF = 2
   IBRION = 2
   NSW = 200
   ISYM = 0
   LREAL = Auto
   LASPH = .TRUE.
   ADDGRID = .TRUE.
   LWAVE = .FALSE.
   LCHARG = .TRUE.
   LORBIT = 11
   LDIPOL = .TRUE.
   IDIPOL = 3
   LDAU = .TRUE.
   LDAUTYPE = 2
   LDAUL = 3 -1 -1
   LDAUU = 4.5 0 0
   LDAUJ = 0 0 0
   LMAXMIX = 6
   GGA = PE
   IVDW = 12

 POTCAR:    PAW_PBE Ce 23Dec2003                  
 POTCAR:    PAW_PBE O 08Apr2002                   
 POTCAR:    PAW_PBE H 15Jun2001                   
 POTCAR:    PAW_PBE Ce 23Dec2003                  
   SHA256 =  00bd3101dba980d69718c826e9aff48526de61f93249f80fb0d1cde9afca69b7 Ce/POTCAR             
   COPYR  = (c) Copyright 23Dec2003 Georg Kresse                                                    
   COPYR  = This file is part of the software VASP. Any use, copying, and all other rights are regul
   COPYR  = If you do not have a valid VASP license, you may not use, copy or distribute this file. 
   VRHFIN =Ce : [core= Kr 4d10]                                                                     
   LEXCH  = PE                                                                                      
   EATOM  =  1063.0861 eV,   78.1346 Ry                                                             
                                                                                                    
   TITEL  = PAW_PBE Ce 23Dec2003                                                                    
   LULTRA =        F    use ultrasoft PP ?                                                          
   IUNSCR =        1    unscreen: 0-lin 1-nonlin 2-no                                               
   RPACOR =    1.800    partial core radius                                                         
   POMASS =  140.115; ZVAL   =   12.000    mass and valenz                                          
   RCORE  =    2.700    outmost cutoff radius                                                       
   RWIGS  =    2.500; RWIGS  =    1.323    wigner-seitz radius (au A)                               
   ENMAX  =  273.042; ENMIN  =  204.781 eV                                                          
   RCLOC  =    1.810    cutoff for local pot                                                        
   LCOR   =        T    correct aug charges                                                         
   LPAW   =        T    paw PP                                                                      
   EAUG   =  580.196                                                                                
   DEXC   =    0.000                                                                                
   RMAX   =    2.749    core radius for proj-oper                                                   
   RAUG   =    1.300    factor for augmentation sphere                                              
   RDEP   =    2.810    radius for radial grids                                                     
   RDEPT  =    2.162    core radius for aug-charge                                                  
                                                                                                    
   Atomic configuration                                                                             
   14 entries                                                                                       
     n  l   j            E        occ.                                                              
     1  0  0.50    -40258.9816   2.0000                                                             
     2  0  0.50     -6445.4884   2.0000                                                             
     2  1  1.50     -5771.7470   6.0000                                                             
     3  0  0.50     -1387.9739   2.0000                                                             
     3  1  1.50     -1173.8158   6.0000                                                             
     3  2  2.50      -869.9108  10.0000                                                             
     4  0  0.50      -280.8706   2.0000                                                             
     4  1  1.50      -210.9815   6.0000                                                             
     4  2  2.50      -110.4558  10.0000                                                             
     5  0  0.50       -40.5819   2.0000                                                             
     6  0  0.50        -3.7444   2.0000                                                             
     5  1  1.50       -23.2188   6.0000                                                             
     5  2  2.50        -3.0598   1.0000                                                             
     4  3  2.50        -5.3970   1.0000                                                             
   Description                                                                                      
     l       E           TYP  RCUT    TYP  RCUT                                                     
     0    -40.5819164     23  1.500                                                                 
     0     -3.7443793     23  2.300                                                                 
     1    -23.2188445     23  2.000                                                                 
     1     40.8174780     23  2.300                                                                 
     2     -3.0597556     23  2.500                                                                 
     2     13.6058260     23  2.500                                                                 
     3     -5.3970469     23  2.700                                                                 
     3     -5.8505052     23  2.700                                                                 
  local pseudopotential read in
  partial core-charges read in
  partial kinetic energy density read in
  atomic valenz-charges read in
  non local Contribution for L=           0  read in
    real space projection operators read in
  non local Contribution for L=           0  read in
    real space projection operators read in
  non local Contribution for L=           1  read in
    real space projection operators read in
  non local Contribution for L=           1  read in
    real space projection operators read in
  non local Contribution for L=           2  read in
    real space projection operators read in
  non local Contribution for L=           2  read in
    real space projection operators read in
  non local Contribution for L=           3  read in
    real space projection operators read in
  non local Contribution for L=           3  read in
    real space projection operators read in
    PAW grid and wavefunctions read in

   number of l-projection  operators is LMAX  =           8
   number of lm-projection operators is LMMAX =          32

 POTCAR:    PAW_PBE O 08Apr2002                   
   SHA256 =  818f92134a0a090dccd8ba1447fa70422a3b330e708bb4f08108d8ae51209ddf O/POTCAR              
   COPYR  = (c) Copyright 08Apr2002 Georg Kresse                                                    
   COPYR  = This file is part of the software VASP. Any use, copying, and all other rights are regul
   COPYR  = If you do not have a valid VASP license, you may not use, copy or distribute this file. 
   VRHFIN =O: s2p4                                                                                  
   LEXCH  = PE                                                                                      
   EATOM  =   432.3788 eV,   31.7789 Ry                                                             
                                                                                                    
   TITEL  = PAW_PBE O 08Apr2002                                                                     
   LULTRA =        F    use ultrasoft PP ?                                                          
   IUNSCR =        1    unscreen: 0-lin 1-nonlin 2-no                                               
   RPACOR =    1.200    partial core radius                                                         
   POMASS =   16.000; ZVAL   =    6.000    mass and valenz                                          
   RCORE  =    1.520    outmost cutoff radius                                                       
   RWIGS  =    1.550; RWIGS  =    0.820    wigner-seitz radius (au A)                               
   ENMAX  =  400.000; ENMIN  =  300.000 eV                                                          
   ICORE  =        2    local potential                                                             
   LCOR   =        T    correct aug charges                                                         
   LPAW   =        T    paw PP                                                                      
   EAUG   =  605.392                                                                                
   DEXC   =    0.000                                                                                
   RMAX   =    1.553    core radius for proj-oper                                                   
   RAUG   =    1.300    factor for augmentation sphere                                              
   RDEP   =    1.550    radius for radial grids                                                     
   RDEPT  =    1.329    core radius for aug-charge                                                  
                                                                                                    
   Atomic configuration                                                                             
    4 entries                                                                                       
     n  l   j            E        occ.                                                              
     1  0  0.50      -514.6923   2.0000                                                             
     2  0  0.50       -23.9615   2.0000                                                             
     2  1  0.50        -9.0305   4.0000                                                             
     3  2  1.50        -9.5241   0.0000                                                             
   Description                                                                                      
     l       E           TYP  RCUT    TYP  RCUT                                                     
     0    -23.9615318     23  1.200                                                                 
     0     -9.5240782     23  1.200                                                                 
     1     -9.0304911     23  1.520                                                                 
     1      8.1634956     23  1.520                                                                 
     2     -9.5240782      7  1.500                                                                 
  local pseudopotential read in
  partial core-charges read in
  partial kinetic energy density read in
  kinetic energy density of atom read in
  atomic valenz-charges read in
  non local Contribution for L=           0  read in
    real space projection operators read in
  non local Contribution for L=           0  read in
    real space projection operators read in
  non local Contribution for L=           1  read in
    real space projection operators read in
  non local Contribution for L=           1  read in
    real space projection operators read in
    PAW grid and wavefunctions read in

   number of l-projection  operators is LMAX  =           4
   number of lm-projection operators is LMMAX =           8

 POTCAR:    PAW_PBE H 15Jun2001                   
   SHA256 =  030f79b5d3ab3cf0e668861823c8fb652ff669f3e15e46930bd03bfd63a607b6 H/POTCAR              
   COPYR  = (c) Copyright 15Jun2001 Georg Kresse                                                    
   COPYR  = This file is part of the software VASP. Any use, copying, and all other rights are regul
   COPYR  = If you do not have a valid VASP license, you may not use, copy or distribute this file. 
   VRHFIN =H: ultrasoft test                                                                        
   LEXCH  = PE                                                                                      
   EATOM  =    12.4884 eV,    0.9179 Ry                                                             
                                                                                                    
   TITEL  = PAW_PBE H 15Jun2001                                                                     
   LULTRA =        F    use ultrasoft PP ?                                                          
   IUNSCR =        0    unscreen: 0-lin 1-nonlin 2-no                                               
   RPACOR =    0.000    partial core radius                                                         
   POMASS =    1.000; ZVAL   =    1.000    mass and valenz                                          
   RCORE  =    1.100    outmost cutoff radius                                                       
   RWIGS  =    0.700; RWIGS  =    0.370    wigner-seitz radius (au A)                               
   ENMAX  =  250.000; ENMIN  =  200.000 eV                                                          
   RCLOC  =    0.701    cutoff for local pot                                                        
   LCOR   =        T    correct aug charges                                                         
   LPAW   =        T    paw PP                                                                      
   EAUG   =  400.000                                                                                
   RMAX   =    1.123    core radius for proj-oper                                                   
   RAUG   =    1.200    factor for augmentation sphere                                              
   RDEP   =    1.112    radius for radial grids                                                     
   RDEPT  =    0.926    core radius for aug-charge                                                  
                                                                                                    
   Atomic configuration                                                                             
    2 entries                                                                                       
     n  l   j            E        occ.                                                              
     1  0  0.50        -6.4927   1.0000                                                             
     2  1  0.50        -3.4015   0.0000                                                             
   Description                                                                                      
     l       E           TYP  RCUT    TYP  RCUT                                                     
     0     -6.4927494     23  1.100                                                                 
     0      6.8029130     23  1.100                                                                 
     1     -4.0817478     23  1.100                                                                 
  local pseudopotential read in
  atomic valenz-charges read in
  non local Contribution for L=           0  read in
    real space projection operators read in
  non local Contribution for L=           0  read in
    real space projection operators read in
  non local Contribution for L=           1  read in
    real space projection operators read in
    PAW grid and wavefunctions read in

   number of l-projection  operators is LMAX  =           3
   number of lm-projection operators is LMMAX =           5

 Optimization of the real space projectors (new method)

 maximal supplied QI-value         = 13.98
 optimisation between [QCUT,QGAM] = [ 11.61, 23.35] = [ 37.72,152.72] Ry 
 Optimized for a Real-space Cutoff    1.58 Angstroem

   l    n(q)    QCUT    max X(q) W(low)/X(q) W(high)/X(q)  e(spline) 
   0     11    11.607     8.553    0.18E-04    0.38E-05    0.11E-06
   0     11    11.607     8.106    0.25E-04    0.72E-05    0.23E-06
   1     11    11.607     4.160    0.64E-06    0.35E-05    0.82E-07
   1     11    11.607     3.597    0.15E-04    0.58E-05    0.16E-06
   2     10    11.607     8.183    0.53E-04    0.30E-03    0.10E-05
   2     10    11.607     6.077    0.37E-04    0.21E-03    0.69E-06
   3     10    11.607   116.013    0.17E-03    0.16E-04    0.46E-06
   3     10    11.607   108.937    0.17E-03    0.15E-04    0.47E-06
 Optimization of the real space projectors (new method)

 maximal supplied QI-value         = 24.76
 optimisation between [QCUT,QGAM] = [ 11.64, 23.27] = [ 37.91,151.63] Ry 
 Optimized for a Real-space Cutoff    1.14 Angstroem

   l    n(q)    QCUT    max X(q) W(low)/X(q) W(high)/X(q)  e(spline) 
   0      8    11.635    20.381    0.10E-03    0.33E-03    0.24E-06
   0      8    11.635    15.268    0.11E-03    0.35E-03    0.26E-06
   1      7    11.635     5.964    0.24E-03    0.31E-03    0.30E-06
   1      7    11.635     5.382    0.22E-03    0.25E-03    0.26E-06
 Optimization of the real space projectors (new method)

 maximal supplied QI-value         = 34.20
 optimisation between [QCUT,QGAM] = [ 11.63, 23.26] = [ 37.87,151.49] Ry 
 Optimized for a Real-space Cutoff    1.21 Angstroem

   l    n(q)    QCUT    max X(q) W(low)/X(q) W(high)/X(q)  e(spline) 
   0      8    11.629    19.460    0.17E-03    0.34E-03    0.21E-06
   0      8    11.629    12.209    0.16E-03    0.33E-03    0.21E-06
   1      8    11.629     4.655    0.18E-03    0.16E-03    0.26E-06
  PAW_PBE Ce 23Dec2003                  :
 energy of atom  1       EATOM=-1063.0861
 kinetic energy error for atom=    0.0133 (will be added to EATOM!!)
  PAW_PBE O 08Apr2002                   :
 energy of atom  2       EATOM= -432.3788
 kinetic energy error for atom=    0.0208 (will be added to EATOM!!)
  PAW_PBE H 15Jun2001                   :
 energy of atom  3       EATOM=  -12.4884
 kinetic energy error for atom=    0.0014 (will be added to EATOM!!)


 POSCAR: Ce O  H
  positions in direct lattice
  No initial velocities read in
 exchange correlation table for  LEXCH =        8
   RHO(1)=    0.500       N(1)  =     2000
   RHO(2)=  100.500       N(2)  =     4000



--------------------------------------------------------------------------------------------------------


 ion  position               nearest neighbor table
   1  0.000  0.000  0.429-  81 2.34  78 2.34  75 2.34 100 2.34 101 2.34  56 2.34 127 2.34
   2  0.000  0.250  0.429-  59 2.34  56 2.34  49 2.34  98 2.34 103 2.34 101 2.34  54 2.34
   3  0.250  0.500  0.429-  85 2.34  55 2.34  73 2.34  80 2.34  50 2.34  51 2.34  76 2.34
   4  0.250  0.250  0.429-  63 2.34  52 2.34  53 2.34  54 2.34  51 2.34  50 2.34  49 2.34
   5  0.333  0.333  0.500-  50 2.34  65 2.34  64 2.34  85 2.34 107 2.34  62 2.34  63 2.34  60 2.34

   6  0.333  0.083  0.500-  52 2.34  67 2.34  62 2.34  63 2.34 129 2.34  58 2.34  88 2.34  61 2.34

   7  0.083  0.333  0.500-  54 2.34  69 2.34  60 2.34  63 2.34  57 2.34  59 2.34  58 2.34 112 2.34

   8  0.083  0.083  0.500-  56 2.34  71 2.34  58 2.34  61 2.34  59 2.34  81 2.34  84 2.34 110 2.34

   9  0.167  0.167  0.571-  58 2.34  71 2.34  94 2.34 116 2.34  72 2.34  69 2.34  67 2.34
  10  0.167  0.417  0.571-  60 2.34  69 2.34  66 2.34  72 2.34  70 2.34  65 2.34  95 2.34
  11  0.417  0.167  0.571-  62 2.34  67 2.34  72 2.34 138 2.34  65 2.34 119 2.34  68 2.34
  12  0.417  0.417  0.571-  64 2.34  65 2.34  68 2.34  70 2.34  91 2.34 114 2.34 117 2.34
  13  0.000  0.500  0.429-  57 2.34  54 2.34  51 2.34 124 2.34 125 2.34  80 2.34 103 2.34
  14  0.000  0.750  0.429-  83 2.34  80 2.34  73 2.34 122 2.34 127 2.34 125 2.34  78 2.34
  15  0.250  0.000  0.429-  61 2.34  56 2.34  49 2.34  74 2.34  79 2.34  75 2.34  52 2.34
  16  0.250  0.750  0.429-  87 2.34  76 2.34  77 2.34  78 2.34  75 2.34  74 2.34  73 2.34
  17  0.333  0.833  0.500-  74 2.34  89 2.34  88 2.34  61 2.34 131 2.34  84 2.34  86 2.34  87 2.34

  18  0.333  0.583  0.500-  76 2.34  91 2.34  86 2.34  87 2.34 105 2.34  82 2.34  85 2.34  64 2.34

  19  0.083  0.833  0.500-  78 2.34  93 2.34  84 2.34  87 2.34  81 2.34  83 2.34  82 2.34 136 2.34

  20  0.083  0.583  0.500-  80 2.34  95 2.34  82 2.34  85 2.34  83 2.34  60 2.34  57 2.34 134 2.34

  21  0.167  0.667  0.571-  82 2.34  95 2.34  70 2.34 140 2.34  91 2.34  96 2.34  93 2.34
  22  0.167  0.917  0.571-  84 2.34  93 2.34  90 2.34  96 2.34  89 2.34  94 2.34  71 2.34
  23  0.417  0.667  0.571-  86 2.34  91 2.34  96 2.34 114 2.34  89 2.34  92 2.34 143 2.34
  24  0.417  0.917  0.571-  88 2.34  89 2.34  92 2.34  94 2.34  67 2.34 138 2.34 141 2.34
  25  0.500  0.000  0.429- 129 2.34  53 2.34 123 2.34 126 2.34  52 2.34 104 2.34  79 2.34
  26  0.500  0.250  0.429- 107 2.34  55 2.34  97 2.34 104 2.34  50 2.34  53 2.34 102 2.34
  27  0.750  0.500  0.429- 133 2.34 103 2.34 121 2.34 128 2.34  98 2.34  99 2.34 124 2.34
  28  0.750  0.250  0.429- 111 2.34 100 2.34 101 2.34 102 2.34  99 2.34  98 2.34  97 2.34
  29  0.833  0.333  0.500-  98 2.34 113 2.34 112 2.34  59 2.34 133 2.34 108 2.34 110 2.34 111 2.34

  30  0.833  0.083  0.500- 100 2.34 115 2.34 110 2.34 111 2.34  81 2.34 109 2.34 106 2.34 136 2.34

  31  0.583  0.333  0.500- 102 2.34 117 2.34 108 2.34 111 2.34 105 2.34  64 2.34 106 2.34 107 2.34

  32  0.583  0.083  0.500- 104 2.34 119 2.34 106 2.34 109 2.34 107 2.34  62 2.34 129 2.34 132 2.34

  33  0.667  0.167  0.571- 106 2.34 119 2.34  68 2.34 142 2.34 115 2.34 120 2.34 117 2.34
  34  0.667  0.417  0.571- 108 2.34 117 2.34 114 2.34 120 2.34 118 2.34 113 2.34 143 2.34
  35  0.917  0.167  0.571- 110 2.34 115 2.34  90 2.34 120 2.34  71 2.34 116 2.34 113 2.34
  36  0.917  0.417  0.571- 112 2.34 113 2.34 116 2.34 118 2.34  66 2.34  69 2.34 139 2.34
  37  0.500  0.500  0.429- 105 2.34  77 2.34  99 2.34 102 2.34  76 2.34  55 2.34 128 2.34
  38  0.500  0.750  0.429- 131 2.34  79 2.34 121 2.34 128 2.34  74 2.34  77 2.34 126 2.34
  39  0.750  0.000  0.429- 109 2.34 104 2.34  97 2.34 122 2.34 127 2.34 123 2.34 100 2.34
  40  0.750  0.750  0.429- 135 2.34 124 2.34 125 2.34 126 2.34 123 2.34 122 2.34 121 2.34
  41  0.833  0.833  0.500- 122 2.34 137 2.34 136 2.34 109 2.34  83 2.34 135 2.34 132 2.34 134 2.34

  42  0.833  0.583  0.500- 124 2.34 139 2.34 134 2.34 135 2.34  57 2.34 112 2.34 130 2.34 133 2.34

  43  0.583  0.833  0.500- 126 2.34 141 2.34 132 2.34 135 2.34 129 2.34  88 2.34 130 2.34 131 2.34

  44  0.583  0.583  0.500- 128 2.34 143 2.34 130 2.34 133 2.34 131 2.34 108 2.34  86 2.34 105 2.34

  45  0.667  0.667  0.571- 130 2.34 143 2.34  92 2.34 118 2.34 141 2.34 139 2.34 144 2.34
  46  0.667  0.917  0.571- 132 2.34 141 2.34 138 2.34 144 2.34 137 2.34 142 2.34 119 2.34
  47  0.917  0.667  0.571- 134 2.34 139 2.34  66 2.34 144 2.34  95 2.34 140 2.34 137 2.34
  48  0.917  0.917  0.571- 136 2.34 137 2.34 140 2.34 142 2.34  93 2.34 115 2.34  90 2.34
  49  0.167  0.167  0.411-   2 2.34  15 2.34   4 2.34
  50  0.333  0.333  0.447-   5 2.34   3 2.34  26 2.34   4 2.34
  51  0.167  0.417  0.411-   4 2.34  13 2.34   3 2.34
  52  0.333  0.083  0.447-   6 2.34   4 2.34  25 2.34  15 2.34
  53  0.417  0.167  0.411-   4 2.34  25 2.34  26 2.34
  54  0.083  0.333  0.447-   7 2.34   4 2.34  13 2.34   2 2.34
  55  0.417  0.417  0.411-   3 2.34  26 2.34  37 2.34
  56  0.083  0.083  0.447-   8 2.34   2 2.34  15 2.34   1 2.34
  57  0.000  0.500  0.482-  13 2.34   7 2.34  42 2.34  20 2.34
  58  0.167  0.167  0.518-   9 2.34   8 2.34   6 2.34   7 2.34
  59  0.000  0.250  0.482-   2 2.34   8 2.34  29 2.34   7 2.34
  60  0.167  0.417  0.518-  10 2.34   7 2.34   5 2.34  20 2.34
  61  0.250  0.000  0.482-  15 2.34   8 2.34  17 2.34   6 2.34
  62  0.417  0.167  0.518-  11 2.34   6 2.34   5 2.34  32 2.34
  63  0.250  0.250  0.482-   4 2.34   6 2.34   7 2.34   5 2.34
  64  0.417  0.417  0.518-  12 2.34   5 2.34  18 2.34  31 2.34
  65  0.333  0.333  0.553-   5 2.34  12 2.34  11 2.34  10 2.34
  66  0.000  0.500  0.589- 146 0.98  47 2.34  10 2.34  36 2.34
  67  0.333  0.083  0.553-   6 2.34  11 2.34   9 2.34  24 2.34
  68  0.500  0.250  0.589- 151 0.98  33 2.34  12 2.34  11 2.34
  69  0.083  0.333  0.553-   7 2.34  10 2.34   9 2.34  36 2.34
  70  0.250  0.500  0.589-  12 2.34  21 2.34  10 2.34
  71  0.083  0.083  0.553-   8 2.34   9 2.34  22 2.34  35 2.34
  72  0.250  0.250  0.589-  10 2.34  11 2.34   9 2.34
  73  0.167  0.667  0.411-   3 2.34  14 2.34  16 2.34
  74  0.333  0.833  0.447-  17 2.34  15 2.34  38 2.34  16 2.34
  75  0.167  0.917  0.411-   1 2.34  16 2.34  15 2.34
  76  0.333  0.583  0.447-  18 2.34  16 2.34  37 2.34   3 2.34
  77  0.417  0.667  0.411-  16 2.34  37 2.34  38 2.34
  78  0.083  0.833  0.447-  19 2.34  16 2.34   1 2.34  14 2.34
  79  0.417  0.917  0.411-  15 2.34  38 2.34  25 2.34
  80  0.083  0.583  0.447-  20 2.34  14 2.34   3 2.34  13 2.34
  81  0.000  0.000  0.482-   1 2.34  19 2.34  30 2.34   8 2.34
  82  0.167  0.667  0.518-  21 2.34  20 2.34  18 2.34  19 2.34
  83  0.000  0.750  0.482-  14 2.34  20 2.34  41 2.34  19 2.34
  84  0.167  0.917  0.518-  22 2.34  19 2.34   8 2.34  17 2.34
  85  0.250  0.500  0.482-   3 2.34   5 2.34  20 2.34  18 2.34
  86  0.417  0.667  0.518-  23 2.34  18 2.34  17 2.34  44 2.34
  87  0.250  0.750  0.482-  16 2.34  18 2.34  19 2.34  17 2.34
  88  0.417  0.917  0.518-  24 2.34  17 2.34   6 2.34  43 2.34
  89  0.333  0.833  0.553-  17 2.34  24 2.34  23 2.34  22 2.34
  90  0.000  0.000  0.589- 148 0.98  35 2.34  22 2.34  48 2.34
  91  0.333  0.583  0.553-  18 2.34  23 2.34  21 2.34  12 2.34
  92  0.500  0.750  0.589-  24 2.34  45 2.34  23 2.34
  93  0.083  0.833  0.553-  19 2.34  22 2.34  21 2.34  48 2.34
  94  0.250  0.000  0.589-   9 2.34  24 2.34  22 2.34
  95  0.083  0.583  0.553-  20 2.34  21 2.34  10 2.34  47 2.34
  96  0.250  0.750  0.589-  22 2.34  23 2.34  21 2.34
  97  0.667  0.167  0.411-  26 2.34  39 2.34  28 2.34
  98  0.833  0.333  0.447-  29 2.34  27 2.34   2 2.34  28 2.34
  99  0.667  0.417  0.411-  28 2.34  37 2.34  27 2.34
 100  0.833  0.083  0.447-  30 2.34  28 2.34   1 2.34  39 2.34
 101  0.917  0.167  0.411-   1 2.34  28 2.34   2 2.34
 102  0.583  0.333  0.447-  31 2.34  28 2.34  37 2.34  26 2.34
 103  0.917  0.417  0.411-   2 2.34  27 2.34  13 2.34
 104  0.583  0.083  0.447-  32 2.34  26 2.34  39 2.34  25 2.34
 105  0.500  0.500  0.482-  37 2.34  31 2.34  18 2.34  44 2.34
 106  0.667  0.167  0.518-  33 2.34  32 2.34  30 2.34  31 2.34
 107  0.500  0.250  0.482-  26 2.34   5 2.34  32 2.34  31 2.34
 108  0.667  0.417  0.518-  34 2.34  31 2.34  29 2.34  44 2.34
 109  0.750  0.000  0.482-  39 2.34  32 2.34  41 2.34  30 2.34
 110  0.917  0.167  0.518-  35 2.34  30 2.34   8 2.34  29 2.34
 111  0.750  0.250  0.482-  28 2.34  30 2.34  31 2.34  29 2.34
 112  0.917  0.417  0.518-  36 2.34  29 2.34   7 2.34  42 2.34
 113  0.833  0.333  0.553-  29 2.34  36 2.34  35 2.34  34 2.34
 114  0.500  0.500  0.589- 149 0.98  34 2.34  23 2.34  12 2.34
 115  0.833  0.083  0.553-  30 2.34  35 2.34  33 2.34  48 2.34
 116  0.000  0.250  0.589-   9 2.34  36 2.34  35 2.34
 117  0.583  0.333  0.553-  31 2.34  34 2.34  33 2.34  12 2.34
 118  0.750  0.500  0.589-  36 2.34  45 2.34  34 2.34
 119  0.583  0.083  0.553-  32 2.34  33 2.34  11 2.34  46 2.34
 120  0.750  0.250  0.589-  34 2.34  35 2.34  33 2.34
 121  0.667  0.667  0.411-  27 2.34  38 2.34  40 2.34
 122  0.833  0.833  0.447-  41 2.34  39 2.34  14 2.34  40 2.34
 123  0.667  0.917  0.411-  25 2.34  40 2.34  39 2.34
 124  0.833  0.583  0.447-  42 2.34  40 2.34  13 2.34  27 2.34
 125  0.917  0.667  0.411-  13 2.34  40 2.34  14 2.34
 126  0.583  0.833  0.447-  43 2.34  40 2.34  25 2.34  38 2.34
 127  0.917  0.917  0.411-  14 2.34  39 2.34   1 2.34
 128  0.583  0.583  0.447-  44 2.34  38 2.34  27 2.34  37 2.34
 129  0.500  0.000  0.482-  25 2.34   6 2.34  43 2.34  32 2.34
 130  0.667  0.667  0.518-  45 2.34  44 2.34  42 2.34  43 2.34
 131  0.500  0.750  0.482-  38 2.34  17 2.34  44 2.34  43 2.34
 132  0.667  0.917  0.518-  46 2.34  43 2.34  32 2.34  41 2.34
 133  0.750  0.500  0.482-  27 2.34  29 2.34  44 2.34  42 2.34
 134  0.917  0.667  0.518-  47 2.34  42 2.34  20 2.34  41 2.34
 135  0.750  0.750  0.482-  40 2.34  42 2.34  43 2.34  41 2.34
 136  0.917  0.917  0.518-  48 2.34  41 2.34  19 2.34  30 2.34
 137  0.833  0.833  0.553-  41 2.34  48 2.34  47 2.34  46 2.34
 138  0.500  0.000  0.589- 147 0.98  46 2.34  11 2.34  24 2.34
 139  0.833  0.583  0.553-  42 2.34  47 2.34  45 2.34  36 2.34
 140  0.000  0.750  0.589- 150 0.98  48 2.34  21 2.34  47 2.34
 141  0.583  0.833  0.553-  43 2.34  46 2.34  45 2.34  24 2.34
 142  0.750  0.000  0.589-  33 2.34  48 2.34  46 2.34
 143  0.583  0.583  0.553-  44 2.34  45 2.34  23 2.34  34 2.34
 144  0.750  0.750  0.589-  46 2.34  47 2.34  45 2.34
 145  0.167  0.167  0.653-
 146  0.000  0.500  0.612-  66 0.98
 147  0.500  0.000  0.612- 138 0.98
 148  0.000  0.000  0.612-  90 0.98
 149  0.500  0.500  0.612- 114 0.98
 150  0.000  0.750  0.612- 140 0.98
 151  0.500  0.250  0.612-  68 0.98


IMPORTANT INFORMATION: All symmetrisations will be switched off!
NOSYMM: (Re-)initialisation of all symmetry stuff for point group C_1.


----------------------------------------------------------------------------------------

                                     Primitive cell                                     

  volume of cell :    8886.8938

  direct lattice vectors                    reciprocal lattice vectors
    15.304619172  0.000000000  0.000000000     0.065339751 -0.037723923  0.000000000
     7.652309586 13.254188998  0.000000000     0.000000000  0.075447845  0.000000000
     0.000000000  0.000000000 43.810105766     0.000000000  0.000000000  0.022825784

  length of vectors
    15.304619172 15.304619172 43.810105766     0.075447845  0.075447845  0.022825784

  position of ions in fractional coordinates (direct lattice)
     0.000000000  0.000000000  0.428691286
     1.000000000  0.250000000  0.428691286
     0.250000000  0.500000000  0.428691286
     0.250000000  0.250000000  0.428691286
     0.333333333  0.333333333  0.500000000
     0.333333333  0.083333333  0.500000000
     0.083333333  0.333333333  0.500000000
     0.083333333  0.083333333  0.500000000
     0.166666667  0.166666667  0.571308714
     0.166666667  0.416666667  0.571308714
     0.416666667  0.166666667  0.571308714
     0.416666667  0.416666667  0.571308714
     1.000000000  0.500000000  0.428691286
     1.000000000  0.750000000  0.428691286
     0.250000000  0.000000000  0.428691286
     0.250000000  0.750000000  0.428691286
     0.333333333  0.833333333  0.500000000
     0.333333333  0.583333333  0.500000000
     0.083333333  0.833333333  0.500000000
     0.083333333  0.583333333  0.500000000
     0.166666667  0.666666667  0.571308714
     0.166666667  0.916666667  0.571308714
     0.416666667  0.666666667  0.571308714
     0.416666667  0.916666667  0.571308714
     0.500000000  0.000000000  0.428691286
     0.500000000  0.250000000  0.428691286
     0.750000000  0.500000000  0.428691286
     0.750000000  0.250000000  0.428691286
     0.833333333  0.333333333  0.500000000
     0.833333333  0.083333333  0.500000000
     0.583333333  0.333333333  0.500000000
     0.583333333  0.083333333  0.500000000
     0.666666667  0.166666667  0.571308714
     0.666666667  0.416666667  0.571308714
     0.916666667  0.166666667  0.571308714
     0.916666667  0.416666667  0.571308714
     0.500000000  0.500000000  0.428691286
     0.500000000  0.750000000  0.428691286
     0.750000000  0.000000000  0.428691286
     0.750000000  0.750000000  0.428691286
     0.833333333  0.833333333  0.500000000
     0.833333333  0.583333333  0.500000000
     0.583333333  0.833333333  0.500000000
     0.583333333  0.583333333  0.500000000
     0.666666667  0.666666667  0.571308714
     0.666666667  0.916666667  0.571308714
     0.916666667  0.666666667  0.571308714
     0.916666667  0.916666667  0.571308714
     0.166666667  0.166666667  0.410864107
     0.333333333  0.333333333  0.446518464
     0.166666667  0.416666667  0.410864107
     0.333333333  0.083333333  0.446518464
     0.416666667  0.166666667  0.410864107
     0.083333333  0.333333333  0.446518464
     0.416666667  0.416666667  0.410864107
     0.083333333  0.083333333  0.446518464
     1.000000000  0.500000000  0.482172821
     0.166666667  0.166666667  0.517827179
     1.000000000  0.250000000  0.482172821
     0.166666667  0.416666667  0.517827179
     0.250000000  0.000000000  0.482172821
     0.416666667  0.166666667  0.517827179
     0.250000000  0.250000000  0.482172821
     0.416666667  0.416666667  0.517827179
     0.333333333  0.333333333  0.553481536
     1.000000000  0.500000000  0.589135893
     0.333333333  0.083333333  0.553481536
     0.500000000  0.250000000  0.589135893
     0.083333333  0.333333333  0.553481536
     0.250000000  0.500000000  0.589135893
     0.083333333  0.083333333  0.553481536
     0.250000000  0.250000000  0.589135893
     0.166666667  0.666666667  0.410864107
     0.333333333  0.833333333  0.446518464
     0.166666667  0.916666667  0.410864107
     0.333333333  0.583333333  0.446518464
     0.416666667  0.666666667  0.410864107
     0.083333333  0.833333333  0.446518464
     0.416666667  0.916666667  0.410864107
     0.083333333  0.583333333  0.446518464
     0.000000000  0.000000000  0.482172821
     0.166666667  0.666666667  0.517827179
     1.000000000  0.750000000  0.482172821
     0.166666667  0.916666667  0.517827179
     0.250000000  0.500000000  0.482172821
     0.416666667  0.666666667  0.517827179
     0.250000000  0.750000000  0.482172821
     0.416666667  0.916666667  0.517827179
     0.333333333  0.833333333  0.553481536
     0.000000000  0.000000000  0.589135893
     0.333333333  0.583333333  0.553481536
     0.500000000  0.750000000  0.589135893
     0.083333333  0.833333333  0.553481536
     0.250000000  0.000000000  0.589135893
     0.083333333  0.583333333  0.553481536
     0.250000000  0.750000000  0.589135893
     0.666666667  0.166666667  0.410864107
     0.833333333  0.333333333  0.446518464
     0.666666667  0.416666667  0.410864107
     0.833333333  0.083333333  0.446518464
     0.916666667  0.166666667  0.410864107
     0.583333333  0.333333333  0.446518464
     0.916666667  0.416666667  0.410864107
     0.583333333  0.083333333  0.446518464
     0.500000000  0.500000000  0.482172821
     0.666666667  0.166666667  0.517827179
     0.500000000  0.250000000  0.482172821
     0.666666667  0.416666667  0.517827179
     0.750000000  0.000000000  0.482172821
     0.916666667  0.166666667  0.517827179
     0.750000000  0.250000000  0.482172821
     0.916666667  0.416666667  0.517827179
     0.833333333  0.333333333  0.553481536
     0.500000000  0.500000000  0.589135893
     0.833333333  0.083333333  0.553481536
     1.000000000  0.250000000  0.589135893
     0.583333333  0.333333333  0.553481536
     0.750000000  0.500000000  0.589135893
     0.583333333  0.083333333  0.553481536
     0.750000000  0.250000000  0.589135893
     0.666666667  0.666666667  0.410864107
     0.833333333  0.833333333  0.446518464
     0.666666667  0.916666667  0.410864107
     0.833333333  0.583333333  0.446518464
     0.916666667  0.666666667  0.410864107
     0.583333333  0.833333333  0.446518464
     0.916666667  0.916666667  0.410864107
     0.583333333  0.583333333  0.446518464
     0.500000000  0.000000000  0.482172821
     0.666666667  0.666666667  0.517827179
     0.500000000  0.750000000  0.482172821
     0.666666667  0.916666667  0.517827179
     0.750000000  0.500000000  0.482172821
     0.916666667  0.666666667  0.517827179
     0.750000000  0.750000000  0.482172821
     0.916666667  0.916666667  0.517827179
     0.833333333  0.833333333  0.553481536
     0.500000000  0.000000000  0.589135893
     0.833333333  0.583333333  0.553481536
     1.000000000  0.750000000  0.589135893
     0.583333333  0.833333333  0.553481536
     0.750000000  0.000000000  0.589135893
     0.583333333  0.583333333  0.553481536
     0.750000000  0.750000000  0.589135893
     0.166666667  0.166666667  0.652591571
     1.000000000  0.500000000  0.611505161
     0.500000000  0.000000000  0.611505161
     0.000000000  0.000000000  0.611505161
     0.500000000  0.500000000  0.611505161
     1.000000000  0.750000000  0.611505161
     0.500000000  0.250000000  0.611505161

  ion indices of the primitive-cell ions
   primitive index   ion index
                 1           1
                 2           2
                 3           3
                 4           4
                 5           5
                 6           6
                 7           7
                 8           8
                 9           9
                10          10
                11          11
                12          12
                13          13
                14          14
                15          15
                16          16
                17          17
                18          18
                19          19
                20          20
                21          21
                22          22
                23          23
                24          24
                25          25
                26          26
                27          27
                28          28
                29          29
                30          30
                31          31
                32          32
                33          33
                34          34
                35          35
                36          36
                37          37
                38          38
                39          39
                40          40
                41          41
                42          42
                43          43
                44          44
                45          45
                46          46
                47          47
                48          48
                49          49
                50          50
                51          51
                52          52
                53          53
                54          54
                55          55
                56          56
                57          57
                58          58
                59          59
                60          60
                61          61
                62          62
                63          63
                64          64
                65          65
                66          66
                67          67
                68          68
                69          69
                70          70
                71          71
                72          72
                73          73
                74          74
                75          75
                76          76
                77          77
                78          78
                79          79
                80          80
                81          81
                82          82
                83          83
                84          84
                85          85
                86          86
                87          87
                88          88
                89          89
                90          90
                91          91
                92          92
                93          93
                94          94
                95          95
                96          96
                97          97
                98          98
                99          99
               100         100
               101         101
               102         102
               103         103
               104         104
               105         105
               106         106
               107         107
               108         108
               109         109
               110         110
               111         111
               112         112
               113         113
               114         114
               115         115
               116         116
               117         117
               118         118
               119         119
               120         120
               121         121
               122         122
               123         123
               124         124
               125         125
               126         126
               127         127
               128         128
               129         129
               130         130
               131         131
               132         132
               133         133
               134         134
               135         135
               136         136
               137         137
               138         138
               139         139
               140         140
               141         141
               142         142
               143         143
               144         144
               145         145
               146         146
               147         147
               148         148
               149         149
               150         150
               151         151

----------------------------------------------------------------------------------------



 KPOINTS: Gamma mesh                              

Automatic generation of k-mesh.
 Grid dimensions read from file:
 generate k-points for:    1    1    1

 Generating k-lattice:

  Cartesian coordinates                     Fractional coordinates (reciprocal lattice)
     0.065339751 -0.037723923  0.000000000     1.000000000 -0.000000000  0.000000000
     0.000000000  0.075447845  0.000000000     0.000000000  1.000000000  0.000000000
     0.000000000  0.000000000  0.022825784     0.000000000  0.000000000  1.000000000

  Length of vectors
     0.075447845  0.075447845  0.022825784

  Shift w.r.t. Gamma in fractional coordinates (k-lattice)
     0.000000000  0.000000000  0.000000000

 
 Subroutine IBZKPT returns following result:
 ===========================================
 
 Found      1 irreducible k-points:
 
 Following reciprocal coordinates:
            Coordinates               Weight
  0.000000  0.000000  0.000000      1.000000
 
 Following cartesian coordinates:
            Coordinates               Weight
  0.000000  0.000000  0.000000      1.000000
 


--------------------------------------------------------------------------------------------------------




 Dimension of arrays:
   k-points           NKPTS =      1   k-points in BZ     NKDIM =      1   number of bands    NBANDS=    724
   number of dos      NEDOS =    301   number of ions     NIONS =    151
   non local maximal  LDIM  =      8   non local SUM 2l+1 LMDIM =     32
   total plane-waves  NPLWV = ******
   max r-space proj   IRMAX =   9042   max aug-charges    IRDMAX= 229754
   dimension x,y,z NGX =   120 NGY =  120 NGZ =  336
   dimension x,y,z NGXF=   240 NGYF=  240 NGZF=  672
   support grid    NGXF=   480 NGYF=  480 NGZF= 1344
   ions per type =              48  97   6
   NGX,Y,Z   is equivalent  to a cutoff of  13.03, 13.03, 12.75 a.u.
   NGXF,Y,Z  is equivalent  to a cutoff of  26.07, 26.07, 25.50 a.u.

 SYSTEM =  PDA@CeO2 production-baseline            
 POSCAR =  Ce O  H                                 

 Startparameter for this run:
   NWRITE =      2    write-flag & timer
   PREC   = accura    normal or accurate (medium, high low for compatibility)
   ISTART =      0    job   : 0-new  1-cont  2-samecut
   ICHARG =      2    charge: 1-file 2-atom 10-const
   ISPIN  =      2    spin polarized calculation?
   LNONCOLLINEAR =      F non collinear calculations
   LSORBIT =      F    spin-orbit coupling
   INIWAV =      1    electr: 0-lowe 1-rand  2-diag
   LASPH  =      T    aspherical Exc in radial PAW
 Electronic Relaxation 1
   ENCUT  =  520.0 eV  38.22 Ry    6.18 a.u.  28.46 28.46 81.46*2*pi/ulx,y,z
   ENINI  =  520.0     initial cutoff
   ENAUG  =  605.4 eV  augmentation charge cutoff
   NELM   =    160;   NELMIN=  2; NELMDL= -5     # of ELM steps 
   EDIFF  = 0.1E-05   stopping-criterion for ELM
   LREAL  =      T    real-space projection
   NLSPLINE    = F    spline interpolate recip. space projectors
   LCOMPAT=      F    compatible to vasp.4.4
   GGA_COMPAT  = T    GGA compatible to vasp.4.4-vasp.4.6
   LMAXPAW     = -100 max onsite density
   LMAXMIX     =    6 max onsite mixed and CHGCAR
   VOSKOWN=      0    Vosko Wilk Nusair interpolation
   ROPT   =   -0.00025  -0.00025  -0.00025
 Ionic relaxation
   EDIFFG = -.2E-01   stopping-criterion for IOM
   NSW    =    200    number of steps for IOM
   NBLOCK =      1;   KBLOCK =    200    inner block; outer block 
   IBRION =      2    ionic relax: 0-MD 1-quasi-New 2-CG
   NFREE  =      1    steps in history (QN), initial steepest desc. (CG)
   ISIF   =      2    stress and relaxation
   IWAVPR =     11    prediction:  0-non 1-charg 2-wave 3-comb
   ISYM   =      0    0-nonsym 1-usesym 2-fastsym
   LCORR  =      T    Harris-Foulkes like correction to forces

   POTIM  = 0.5000    time-step for ionic-motion
   TEIN   =    0.0    initial temperature
   TEBEG  =    0.0;   TEEND  =   0.0 temperature during run
   SMASS  =  -3.00    Nose mass-parameter (am)
   estimated Nose-frequenzy (Omega)   =  0.10E-29 period in steps = 0.13E+47 mass=  -0.535E-26a.u.
   SCALEE = 1.0000    scale energy and forces
   NPACO  =    256;   APACO  = 10.0  distance and # of slots for P.C.
   PSTRESS=    0.0 pullay stress

  Mass of Ions in am
   POMASS = 140.12 16.00  1.00
  Ionic Valenz
   ZVAL   =  12.00  6.00  1.00
  Atomic Wigner-Seitz radii
   RWIGS  =  -1.00 -1.00 -1.00
  virtual crystal weights 
   VCA    =   1.00  1.00  1.00
   NELECT =    1164.0000    total number of electrons
   NUPDOWN=      -1.0000    fix difference up-down

 DOS related values:
   EMIN   =  10.00;   EMAX   =-10.00  energy-range for DOS
   EFERMI =   0.00;   METHOD = LEGACY      
   ISMEAR =     0;   SIGMA  =   0.05  broadening in eV -4-tet -1-fermi 0-gaus

 Electronic relaxation 2 (details)
   IALGO  =     38    algorithm
   LDIAG  =      T    sub-space diagonalisation (order eigenvalues)
   LSUBROT=      F    optimize rotation matrix (better conditioning)
   TURBO    =      0    0=normal 1=particle mesh
   IRESTART =      0    0=no restart 2=restart with 2 vectors
   NREBOOT  =      0    no. of reboots
   NMIN     =      0    reboot dimension
   EREF     =   0.00    reference energy to select bands
   IMIX   =      4    mixing-type and parameters
     AMIX     =   0.20;   BMIX     =  0.00
     AMIX_MAG =   0.80;   BMIX_MAG =  0.00
     AMIN     =   0.10
     WC   =   100.;   INIMIX=   1;  MIXPRE=   1;  MAXMIX= -45

 Intra band minimization:
   WEIMIN = 0.0010     energy-eigenvalue tresh-hold
   EBREAK =  0.35E-09  absolut break condition
   DEPER  =   0.30     relativ break condition  

   TIME   =   0.40     timestep for ELM

  volume/ion in A,a.u.               =      58.85       397.16
  Fermi-wavevector in a.u.,A,eV,Ry     =   0.831398  1.571115  9.404663  0.691223
  Thomas-Fermi vector in A             =   1.944279

 Write flags
   LWAVE        =      F    write WAVECAR
   LDOWNSAMPLE  =      F    k-point downsampling of WAVECAR
   LCHARG       =      T    write CHGCAR
   LVTOT        =      F    write LOCPOT, total local potential
   LVHAR        =      F    write LOCPOT, Hartree potential only
   LELF         =      F    write electronic localiz. function (ELF)
   LORBIT       =     11    0 simple, 1 ext, 2 COOP (PROOUT), +10 PAW based schemes


 Dipole corrections
   LMONO  =      F    monopole corrections only (constant potential shift)
   LDIPOL =      T    correct potential (dipole corrections)
   IDIPOL =      3    1-x, 2-y, 3-z, 4-all directions 
   EPSILON=  1.0000000 bulk dielectric constant

 LDA+U is selected, type is set to LDAUTYPE =  2
   angular momentum for each species LDAUL =     3   -1   -1
   U (eV)           for each species LDAUU =   4.5  0.0  0.0
   J (eV)           for each species LDAUJ =   0.0  0.0  0.0
 Exchange correlation treatment:
   GGA     =    PE    GGA type
   LEXCH   =     8    internal setting for exchange type
   LIBXC   =     F    Libxc                    
   VOSKOWN =     0    Vosko Wilk Nusair interpolation
   LHFCALC =     F    Hartree Fock is set to
   LHFONE  =     F    Hartree Fock one center treatment
   AEXX    =    0.0000 exact exchange contribution

 Linear response parameters
   LEPSILON=     F    determine dielectric tensor
   LRPA    =     F    only Hartree local field effects (RPA)
   LNABLA  =     F    use nabla operator in PAW spheres
   LVEL    =     F    velocity operator in full k-point grid
   CSHIFT  =0.1000    complex shift for real part using Kramers Kronig
   OMEGAMAX=  -1.0    maximum frequency
   DEG_THRESHOLD= 0.2000000E-02 threshold for treating states as degnerate
   RTIME   =   -0.100 relaxation time in fs
  (WPLASMAI=    0.000 imaginary part of plasma frequency in eV, 0.658/RTIME)
   DFIELD  = 0.0000000 0.0000000 0.0000000 field for delta impulse in time

  Optional k-point grid parameters
   LKPOINTS_OPT  =     F    use optional k-point grid
   KPOINTS_OPT_MODE=     1    mode for optional k-point grid

 Orbital magnetization related:
   ORBITALMAG=     F  switch on orbital magnetization
   LCHIMAG   =     F  perturbation theory with respect to B field
   DQ        =  0.001000  dq finite difference perturbation B field
   LLRAUG    =     F  two centre corrections for induced B field
   LBONE     =     F  B-component reconstruction in AE one-centre
   LVGVCALC  =     T  calculate vGv susceptibility
   LVGVAPPL  =     F  apply vGv susceptibility instead of pGv for G=0

 Random number generation:
   RANDOM_GENERATOR = DEFAULT
   PCG_SEED         = not used


--------------------------------------------------------------------------------------------------------


 conjugate gradient relaxation of ions
   using selective dynamics as specified on POSCAR
 charge density and potential will be updated during run
 spin polarized calculation
 Variant of blocked Davidson
 Davidson routine will perform the subspace rotation
 perform sub-space diagonalisation
    after iterative eigenvector-optimisation
 modified Broyden-mixing scheme, WC =      100.0
 initial mixing is a Kerker type mixing with AMIX =  0.2000 and BMIX =      0.0001
 Hartree-type preconditioning will be used
 using additional bands          142
 real space projection scheme for non local part
 use partial core corrections
 calculate Harris-corrections to forces   (improved forces if not selfconsistent)
 use gradient corrections 
 use of overlap-Matrix (Vanderbilt PP)
 Gauss-broadening in eV      SIGMA  =   0.05


--------------------------------------------------------------------------------------------------------


  energy-cutoff  :      520.00
  volume of cell :     8886.89
      direct lattice vectors                 reciprocal lattice vectors
    15.304619172  0.000000000  0.000000000     0.065339751 -0.037723923  0.000000000
     7.652309586 13.254188998  0.000000000     0.000000000  0.075447845  0.000000000
     0.000000000  0.000000000 43.810105766     0.000000000  0.000000000  0.022825784

  length of vectors
    15.304619172 15.304619172 43.810105766     0.075447845  0.075447845  0.022825784



 k-points in units of 2pi/SCALE and weight: Gamma mesh                              
   0.00000000  0.00000000  0.00000000       1.000

 k-points in reciprocal lattice and weights: Gamma mesh                              
   0.00000000  0.00000000  0.00000000       1.000

 position of ions in fractional coordinates (direct lattice) 
   0.00000000  0.00000000  0.42869129
   0.00000000  0.25000000  0.42869129
   0.25000000  0.50000000  0.42869129
   0.25000000  0.25000000  0.42869129
   0.33333333  0.33333333  0.50000000
   0.33333333  0.08333333  0.50000000
   0.08333333  0.33333333  0.50000000
   0.08333333  0.08333333  0.50000000
   0.16666667  0.16666667  0.57130871
   0.16666667  0.41666667  0.57130871
   0.41666667  0.16666667  0.57130871
   0.41666667  0.41666667  0.57130871
   0.00000000  0.50000000  0.42869129
   0.00000000  0.75000000  0.42869129
   0.25000000  0.00000000  0.42869129
   0.25000000  0.75000000  0.42869129
   0.33333333  0.83333333  0.50000000
   0.33333333  0.58333333  0.50000000
   0.08333333  0.83333333  0.50000000
   0.08333333  0.58333333  0.50000000
   0.16666667  0.66666667  0.57130871
   0.16666667  0.91666667  0.57130871
   0.41666667  0.66666667  0.57130871
   0.41666667  0.91666667  0.57130871
   0.50000000  0.00000000  0.42869129
   0.50000000  0.25000000  0.42869129
   0.75000000  0.50000000  0.42869129
   0.75000000  0.25000000  0.42869129
   0.83333333  0.33333333  0.50000000
   0.83333333  0.08333333  0.50000000
   0.58333333  0.33333333  0.50000000
   0.58333333  0.08333333  0.50000000
   0.66666667  0.16666667  0.57130871
   0.66666667  0.41666667  0.57130871
   0.91666667  0.16666667  0.57130871
   0.91666667  0.41666667  0.57130871
   0.50000000  0.50000000  0.42869129
   0.50000000  0.75000000  0.42869129
   0.75000000  0.00000000  0.42869129
   0.75000000  0.75000000  0.42869129
   0.83333333  0.83333333  0.50000000
   0.83333333  0.58333333  0.50000000
   0.58333333  0.83333333  0.50000000
   0.58333333  0.58333333  0.50000000
   0.66666667  0.66666667  0.57130871
   0.66666667  0.91666667  0.57130871
   0.91666667  0.66666667  0.57130871
   0.91666667  0.91666667  0.57130871
   0.16666667  0.16666667  0.41086411
   0.33333333  0.33333333  0.44651846
   0.16666667  0.41666667  0.41086411
   0.33333333  0.08333333  0.44651846
   0.41666667  0.16666667  0.41086411
   0.08333333  0.33333333  0.44651846
   0.41666667  0.41666667  0.41086411
   0.08333333  0.08333333  0.44651846
   0.00000000  0.50000000  0.48217282
   0.16666667  0.16666667  0.51782718
   0.00000000  0.25000000  0.48217282
   0.16666667  0.41666667  0.51782718
   0.25000000  0.00000000  0.48217282
   0.41666667  0.16666667  0.51782718
   0.25000000  0.25000000  0.48217282
   0.41666667  0.41666667  0.51782718
   0.33333333  0.33333333  0.55348154
   0.00000000  0.50000000  0.58913589
   0.33333333  0.08333333  0.55348154
   0.50000000  0.25000000  0.58913589
   0.08333333  0.33333333  0.55348154
   0.25000000  0.50000000  0.58913589
   0.08333333  0.08333333  0.55348154
   0.25000000  0.25000000  0.58913589
   0.16666667  0.66666667  0.41086411
   0.33333333  0.83333333  0.44651846
   0.16666667  0.91666667  0.41086411
   0.33333333  0.58333333  0.44651846
   0.41666667  0.66666667  0.41086411
   0.08333333  0.83333333  0.44651846
   0.41666667  0.91666667  0.41086411
   0.08333333  0.58333333  0.44651846
   0.00000000  0.00000000  0.48217282
   0.16666667  0.66666667  0.51782718
   0.00000000  0.75000000  0.48217282
   0.16666667  0.91666667  0.51782718
   0.25000000  0.50000000  0.48217282
   0.41666667  0.66666667  0.51782718
   0.25000000  0.75000000  0.48217282
   0.41666667  0.91666667  0.51782718
   0.33333333  0.83333333  0.55348154
   0.00000000  0.00000000  0.58913589
   0.33333333  0.58333333  0.55348154
   0.50000000  0.75000000  0.58913589
   0.08333333  0.83333333  0.55348154
   0.25000000  0.00000000  0.58913589
   0.08333333  0.58333333  0.55348154
   0.25000000  0.75000000  0.58913589
   0.66666667  0.16666667  0.41086411
   0.83333333  0.33333333  0.44651846
   0.66666667  0.41666667  0.41086411
   0.83333333  0.08333333  0.44651846
   0.91666667  0.16666667  0.41086411
   0.58333333  0.33333333  0.44651846
   0.91666667  0.41666667  0.41086411
   0.58333333  0.08333333  0.44651846
   0.50000000  0.50000000  0.48217282
   0.66666667  0.16666667  0.51782718
   0.50000000  0.25000000  0.48217282
   0.66666667  0.41666667  0.51782718
   0.75000000  0.00000000  0.48217282
   0.91666667  0.16666667  0.51782718
   0.75000000  0.25000000  0.48217282
   0.91666667  0.41666667  0.51782718
   0.83333333  0.33333333  0.55348154
   0.50000000  0.50000000  0.58913589
   0.83333333  0.08333333  0.55348154
   0.00000000  0.25000000  0.58913589
   0.58333333  0.33333333  0.55348154
   0.75000000  0.50000000  0.58913589
   0.58333333  0.08333333  0.55348154
   0.75000000  0.25000000  0.58913589
   0.66666667  0.66666667  0.41086411
   0.83333333  0.83333333  0.44651846
   0.66666667  0.91666667  0.41086411
   0.83333333  0.58333333  0.44651846
   0.91666667  0.66666667  0.41086411
   0.58333333  0.83333333  0.44651846
   0.91666667  0.91666667  0.41086411
   0.58333333  0.58333333  0.44651846
   0.50000000  0.00000000  0.48217282
   0.66666667  0.66666667  0.51782718
   0.50000000  0.75000000  0.48217282
   0.66666667  0.91666667  0.51782718
   0.75000000  0.50000000  0.48217282
   0.91666667  0.66666667  0.51782718
   0.75000000  0.75000000  0.48217282
   0.91666667  0.91666667  0.51782718
   0.83333333  0.83333333  0.55348154
   0.50000000  0.00000000  0.58913589
   0.83333333  0.58333333  0.55348154
   0.00000000  0.75000000  0.58913589
   0.58333333  0.83333333  0.55348154
   0.75000000  0.00000000  0.58913589
   0.58333333  0.58333333  0.55348154
   0.75000000  0.75000000  0.58913589
   0.16666667  0.16666667  0.65259157
   0.00000000  0.50000000  0.61150516
   0.50000000  0.00000000  0.61150516
   0.00000000  0.00000000  0.61150516
   0.50000000  0.50000000  0.61150516
   0.00000000  0.75000000  0.61150516
   0.50000000  0.25000000  0.61150516

 position of ions in cartesian coordinates  (Angst):
   0.00000000  0.00000000 18.78101058
   1.91307740  3.31354725 18.78101058
   7.65230959  6.62709450 18.78101058
   5.73923219  3.31354725 18.78101058
   7.65230959  4.41806300 21.90505288
   5.73923219  1.10451575 21.90505288
   3.82615479  4.41806300 21.90505288
   1.91307740  1.10451575 21.90505288
   3.82615479  2.20903150 25.02909519
   5.73923219  5.52257875 25.02909519
   7.65230959  2.20903150 25.02909519
   9.56538698  5.52257875 25.02909519
   3.82615479  6.62709450 18.78101058
   5.73923219  9.94064175 18.78101058
   3.82615479  0.00000000 18.78101058
   9.56538698  9.94064175 18.78101058
  11.47846438 11.04515750 21.90505288
   9.56538698  7.73161025 21.90505288
   7.65230959 11.04515750 21.90505288
   5.73923219  7.73161025 21.90505288
   7.65230959  8.83612600 25.02909519
   9.56538698 12.14967325 25.02909519
  11.47846438  8.83612600 25.02909519
  13.39154178 12.14967325 25.02909519
   7.65230959  0.00000000 18.78101058
   9.56538698  3.31354725 18.78101058
  15.30461917  6.62709450 18.78101058
  13.39154178  3.31354725 18.78101058
  15.30461917  4.41806300 21.90505288
  13.39154178  1.10451575 21.90505288
  11.47846438  4.41806300 21.90505288
   9.56538698  1.10451575 21.90505288
  11.47846438  2.20903150 25.02909519
  13.39154178  5.52257875 25.02909519
  15.30461917  2.20903150 25.02909519
  17.21769657  5.52257875 25.02909519
  11.47846438  6.62709450 18.78101058
  13.39154178  9.94064175 18.78101058
  11.47846438  0.00000000 18.78101058
  17.21769657  9.94064175 18.78101058
  19.13077397 11.04515750 21.90505288
  17.21769657  7.73161025 21.90505288
  15.30461917 11.04515750 21.90505288
  13.39154178  7.73161025 21.90505288
  15.30461917  8.83612600 25.02909519
  17.21769657 12.14967325 25.02909519
  19.13077397  8.83612600 25.02909519
  21.04385136 12.14967325 25.02909519
   3.82615479  2.20903150 18.00000000
   7.65230959  4.41806300 19.56202115
   5.73923219  5.52257875 18.00000000
   5.73923219  1.10451575 19.56202115
   7.65230959  2.20903150 18.00000000
   3.82615479  4.41806300 19.56202115
   9.56538698  5.52257875 18.00000000
   1.91307740  1.10451575 19.56202115
   3.82615479  6.62709450 21.12404231
   3.82615479  2.20903150 22.68606346
   1.91307740  3.31354725 21.12404231
   5.73923219  5.52257875 22.68606346
   3.82615479  0.00000000 21.12404231
   7.65230959  2.20903150 22.68606346
   5.73923219  3.31354725 21.12404231
   9.56538698  5.52257875 22.68606346
   7.65230959  4.41806300 24.24808461
   3.82615479  6.62709450 25.81010577
   5.73923219  1.10451575 24.24808461
   9.56538698  3.31354725 25.81010577
   3.82615479  4.41806300 24.24808461
   7.65230959  6.62709450 25.81010577
   1.91307740  1.10451575 24.24808461
   5.73923219  3.31354725 25.81010577
   7.65230959  8.83612600 18.00000000
  11.47846438 11.04515750 19.56202115
   9.56538698 12.14967325 18.00000000
   9.56538698  7.73161025 19.56202115
  11.47846438  8.83612600 18.00000000
   7.65230959 11.04515750 19.56202115
  13.39154178 12.14967325 18.00000000
   5.73923219  7.73161025 19.56202115
   0.00000000  0.00000000 21.12404231
   7.65230959  8.83612600 22.68606346
   5.73923219  9.94064175 21.12404231
   9.56538698 12.14967325 22.68606346
   7.65230959  6.62709450 21.12404231
  11.47846438  8.83612600 22.68606346
   9.56538698  9.94064175 21.12404231
