LAMMPS data file via write_data, version 4 Jul 2026, timestep = 100000, units = real

2694 atoms
14 atom types
2988 bonds
16 bond types
4902 angles
28 angle types
7656 dihedrals
17 dihedral types
1548 impropers
2 improper types

28.443229850055456 61.55677014994639 xlo xhi
28.443229850055456 61.55677014994639 ylo yhi
28.443229850055456 61.55677014994639 zlo zhi

Masses

1 12.01
2 12.01
3 12.01
4 1.008
5 1.008
6 1.008
7 1.008
8 1.008
9 14.01
10 14.01
11 14.01
12 16
13 16
14 16

Pair Coeffs # lj/cut/coul/long

1 0.0988 3.31521
2 0.1078 3.39771
3 0.0988 3.31521
4 0.0208 2.422
5 0.0161 2.62548
6 0.0208 2.60018
7 0.01 1.1065
8 0.0047 0.537925
9 0.1636 3.18086
10 0.1174 3.26995
11 0.112 3.36813
12 0.1463 3.04812
13 0.093 3.24287
14 0.0726 3.1561

Bond Coeffs # harmonic

1 232.5 1.538
2 250.3 1.516
3 263.8 1.462
4 272.7 1.491
5 315.2 1.412
6 347.1 1.386
7 356.2 1.379
8 357.5 1.37
9 365.6 1.364
10 375.9 1.097
11 378.6 1.398
12 395.7 1.086
13 527.3 1.013
14 529.5 1.012
15 563.5 0.973
16 652.6 1.218

Angle Coeffs # harmonic

1 38.8 108.46
2 39 107.58
3 39.5 115.12
4 46.1 117.68
5 46.8 109.8
6 46.9 109.56
7 47.3 110.47
8 48.7 117.55
9 48.7 119.88
10 48.8 116.07
11 50.7 108.58
12 61.5 108.88
13 65.2 112.07
14 65.3 120.69
15 65.6 120.77
16 65.6 127.08
17 65.7 123.71
18 66.4 120.33
19 67.1 119.89
20 68.8 120.02
21 83.2 111.61
22 85.4 115.25
23 85.6 120.19
24 86.2 120.95
25 86.2 122.6
26 87.2 119.9
27 87.3 119.2
28 113.8 123.05

Dihedral Coeffs # fourier

1 1 0 2 0
2 1 0 2 180
3 1 0.1 4 180
4 1 0.155556 3 0
5 1 0.17 3 0
6 1 0.21 3 0
7 1 0.245 2 180
8 1 0.5225 2 180
9 1 0.835 2 180
10 1 0.9 2 180
11 1 0.95 2 180
12 1 1 2 180
13 1 1.02 1 180
14 1 1.05 2 180
15 1 2 1 0
16 1 2.5 2 180
17 1 3.625 2 180

Improper Coeffs # cvff

1 1.1 -1 2
2 10.5 -1 2

Atoms # full

1393 4 3 0.053259 31.433424589512928 35.127391231993286 32.8002865466532 1 1 1
1377 4 3 0.050832 31.898760593916055 33.859524522149606 33.09750645616299 1 1 1
1375 4 1 0.2575330002 31.7831891585146 33.03606787866341 31.87589450921311 1 1 1
1378 4 3 -0.046212 32.38972556370903 33.54470604107853 34.39661550476221 1 1 1
1394 4 5 0.0632240003 32.71981328278635 32.62524257776823 34.69199887387336 1 1 1
1379 4 3 -0.030409 32.41737889049219 34.561376030351994 35.31619219880842 1 1 1
1376 4 12 -0.270822 32.14261083753318 31.85795810299347 31.76693862734485 1 1 1
1792 4 7 0.1426590002 30.64079000918599 30.321928677988446 32.50792173179914 1 1 1
1563 4 3 -0.037388 33.678276278752236 29.552812120568554 34.025351972166554 1 1 1
1576 4 5 0.0643810002 33.58061756351188 30.58396734138033 33.83410298063162 1 1 1
1374 4 1 0.2576279998 30.97919721730332 35.162930801832424 31.40495453381674 1 1 1
1358 4 9 -0.2015900002 31.23050777457673 33.9099477055956 30.932293769881746 1 1 1
1671 4 9 -0.2015900002 35.51789066671374 34.7030194432676 31.109801655032438 1 1 1
1680 4 5 0.0643810002 35.392729402839436 32.148948364638706 32.29380509781937 1 1 1
1368 4 5 0.0643810002 29.033243363473957 34.135597331913395 29.24371160137327 1 1 1
1686 4 1 0.2575330002 35.25608179549895 34.20554548481583 29.79967943923437 1 1 1
1357 4 3 0.044175 31.099344976332347 33.53621172995956 29.56270084406671 1 1 1
1369 4 5 0.0643810002 32.96670441815146 32.41897572154379 29.520916231505726 1 1 1
1398 4 5 0.06592500010000001 34.64943263741685 35.93819134349775 35.361794643769194 1 1 1
1380 4 3 0.08280999980000001 31.99844881059967 35.876925639596465 35.03148267501964 1 1 1
1373 4 12 -0.2708210001 30.42630001558157 36.07987762858595 30.89240681906413 1 1 1
1688 4 3 0.050832 34.21565041722471 35.18595595121626 29.161572871529255 1 1 1
1392 4 3 -0.017827 31.370123885994445 36.161327534623084 33.730622456592435 1 1 1
1685 4 1 0.2576279998 34.77464298001026 35.91760995903288 31.31491913329863 1 1 1
1704 4 3 0.053259 33.867876783442284 36.100955883477525 30.082603542689004 1 1 1
1395 4 5 0.0650900002 32.85069675211336 34.4129155958656 36.27774078013041 1 1 1
1550 4 12 -0.2708210001 35.04383054094238 31.706662957456192 35.45575065040495 1 1 1
1391 4 3 -0.017827 34.52300728702097 36.44072204980032 36.316771601398756 1 1 1
1359 4 3 -0.037388 32.05017974335448 32.68730099144418 28.981191325964208 1 1 1
1684 4 12 -0.2708210001 34.844823389047555 36.5742901768746 32.33078423599937 1 1 1
1782 4 11 -0.3582950001 30.121806463416622 29.478984663844308 32.68941096399837 1 1 1
1687 4 12 -0.270822 35.68219387359979 33.19426206883695 29.3662573859684 1 1 1
1577 4 5 0.06513400010000001 33.40636012733556 29.289436323446225 31.921842448368025 1 1 1
1562 4 3 0.044175 33.91784700229355 28.975022592734625 35.32335291389095 1 1 1
1356 4 3 -0.037388 29.906322679582807 33.70253969942592 28.8021597272845 1 1 1
1381 4 14 -0.3104160002 32.150187366622724 36.93202676780482 35.91349943481934 1 1 1
1670 4 3 0.044175 36.41371048705804 34.136546046231025 32.04864517155669 1 1 1
1672 4 3 -0.037388 36.26123022420502 32.83521247616642 32.51218888956173 1 1 1
1580 4 5 0.0643810002 31.86816272333254 28.910778458840316 61.4142738628219 1 1 0
310 1 5 0.0650900002 29.192724724173182 31.90748913423798 34.838415334808275 1 1 1
1564 4 3 -0.029358 33.47293947724888 28.735287690402064 32.902167741988876 1 1 1
1679 4 5 0.0643810002 37.553722914709255 35.97594290146375 32.32887801124241 1 1 1
1669 4 3 -0.037388 37.45996136291638 34.90640703155665 32.53856767819994 1 1 1
1681 4 5 0.06513400010000001 37.19484222466521 31.27780656129849 33.655266088163685 1 1 1
1673 4 3 -0.029358 37.251487091462884 32.276481494619965 33.28929116068033 1 1 1
1667 4 3 0.0821070002 38.404652135717036 33.0091709382869 33.663998044783014 1 1 1
1668 4 3 -0.029358 38.38449960183745 34.38366546953495 33.4612718540883 1 1 1
1682 4 5 0.06513400010000001 41.496349912142634 33.77120466276881 33.36296410724708 1 1 1
1674 4 3 -0.029358 41.400655933954745 32.79709669021756 32.88725495816903 1 1 1
1665 4 3 0.0821070002 40.35549562326891 31.919026835420645 33.23549554503385 1 1 1
1666 4 14 -0.310465 39.45208635750389 32.34825265219916 34.16862597478246 1 1 1
1678 4 5 0.06513400010000001 39.257200769246055 35.00045375678879 33.84743027363962 1 1 1
1662 4 3 0.044175 41.95795995797445 31.224924815126677 31.008346650289656 1 1 1
1675 4 3 -0.037388 42.168458194925066 32.425835868147104 31.72513876969053 1 1 1
1683 4 5 0.0643810002 42.959794855683626 33.05978093254435 31.35096876715297 1 1 1
1661 4 9 -0.2015900002 42.608121658461286 31.075119208487717 29.788108548806665 1 1 1
1435 4 1 0.2576290002 42.513295089287844 36.28369100271953 36.32946020174681 1 1 1
1459 4 5 0.06592500010000001 42.83888282789004 36.22771588270457 30.977727756874913 1 1 1
1454 4 3 0.053259 43.45498559084635 35.74737107328076 35.28877222073458 1 1 1
1455 4 5 0.0632240003 43.97130032403301 32.4676916465029 34.625534155446566 1 1 1
1439 4 3 -0.046212 44.107985484279986 33.55167612768101 34.46959024918638 1 1 1
1438 4 3 0.050832 43.45685159991507 34.36691269836296 35.394483820635216 1 1 1
1453 4 3 -0.017827 44.174861337039516 36.385290172676946 34.23858194110531 1 1 1
1452 4 3 -0.017827 43.645696354859524 35.6269127975193 30.537756363507338 1 1 1
1451 4 3 0.053259 43.392721039350825 35.03836057465724 29.32075914292818 1 1 1
1440 4 3 -0.030409 44.83544823890006 34.13938212236244 33.43370097544353 1 1 1
2017 5 3 -0.029358 41.97242273942581 28.88507605612461 34.66002928061613 0 1 1
2018 5 3 -0.037388 42.96108737665708 29.02197211344616 33.734360997293614 0 1 1
2019 5 3 0.044175 44.23321619722161 29.525484898978938 34.110118221394856 0 1 1
1647 4 1 0.2575330002 44.041051437254744 30.996455577975198 29.56680646224468 1 1 1
1450 4 12 -0.2708210001 40.93513342759018 35.28002768789402 28.98884102895119 1 1 1
1664 4 3 -0.029358 40.12217711369269 30.724388314040755 32.58865542276747 1 1 1
1663 4 3 -0.037388 40.91327363908899 30.40169169896226 31.43318780634709 1 1 1
2326 6 5 0.062665 38.35810761527264 30.3988919544908 36.12597445281216 1 1 1
2455 6 5 0.0650900002 38.477541002286976 29.659587013794035 29.15054757641275 1 1 1
1456 4 5 0.0650900002 45.35819580373862 33.57676676467838 32.69738478363732 1 1 1
1648 4 12 -0.270822 45.0106543831556 30.885334025487385 30.327652377489475 1 1 1
1441 4 3 0.08280999980000001 44.80565294140649 35.525331278118756 33.33810690632508 1 1 1
1436 4 1 0.257535 42.43375754540355 33.97167654005632 36.4116756670316 1 1 1
1421 4 5 0.0663080001 39.46134709098571 35.511275512075734 36.71100760861091 1 1 1
1389 4 12 -0.2708210001 37.24101697975746 34.87750155748417 36.54003482735091 1 1 1
2028 5 5 0.0643810002 42.765002244813125 28.642703543119442 32.69339028542969 0 1 1
1677 4 5 0.06513400010000001 39.33841625240455 30.047219051080916 32.90660314116551 1 1 1
2327 6 5 0.0651460002 38.085990592321984 32.39198796352132 37.21104604854779 1 1 1
1460 4 5 0.06592500010000001 44.16141260572395 37.45011809307211 34.05994810776308 1 1 1
1443 4 3 0.08280999980000001 44.95865985174483 35.613727507863075 30.986654780031497 1 1 1
1442 4 14 -0.3104160002 45.31283731220094 36.15919813051735 32.21653832369976 1 1 1
1444 4 3 -0.030409 45.9353368564464 34.891415688513874 30.22518897916435 1 1 1
1457 4 5 0.0650900002 46.9644402437859 34.89908412293303 30.559646892373838 1 1 1
2245 5 5 0.0643810002 46.324697706466644 33.098648587891155 36.19747963240155 0 1 1
2208 5 12 -0.270822 48.719329429645995 33.093198749242895 34.8901308966391 0 1 1
2207 5 1 0.2575330002 48.48675851941525 34.10390926379568 34.28021059955842 0 1 1
2020 5 9 -0.2015900002 45.34297721550308 29.484761109538823 33.20456498520733 0 1 1
2221 5 9 -0.2015900002 47.640267995082695 35.11720076215517 34.71299572924798 0 1 1
2053 5 3 0.053259 47.45300142286797 29.840327139355228 32.33791886284612 0 1 1
2052 5 3 -0.017827 48.80188234044909 30.21906113907194 32.10718154203553 0 1 1
2059 5 5 0.06592500010000001 49.30247785499068 31.000040580268443 32.71535130704607 0 1 1
2206 5 3 0.050832 49.17875948495708 34.60644483209078 33.03526334422648 0 1 1
2034 5 1 0.2576279998 46.41515925560803 30.36586773171614 33.212760562415426 0 1 1
2033 5 12 -0.2708210001 46.490353869140264 31.432275517557187 33.81093628850899 0 1 1
2040 5 3 0.08280999980000001 49.50830285189056 29.445300847272073 31.142053700397486 0 1 1
1955 5 5 0.0650900002 51.52446852991346 34.24495546131588 35.05935296943278 0 1 1
1939 5 3 -0.030409 52.21281866867717 34.78316478071916 35.746549124020355 0 1 1
2205 5 3 -0.046212 50.15773840840079 34.104752272308886 32.254420110162556 0 1 1
2218 5 5 0.0632240003 50.38374285759869 33.025297556594296 32.27855254847121 0 1 1
2041 5 14 -0.3104160002 50.85743803133333 29.609902062469853 30.83914388542389 0 1 1
2042 5 3 0.08280999980000001 51.7932278809742 30.555127609735806 31.278299012206464 0 1 1
2056 5 5 0.0650900002 51.819898927333035 31.581142923832363 29.344904932635334 0 1 1
2058 5 5 0.06592500010000001 51.823388907483825 29.898569770198595 33.47966024939004 0 1 1
2051 5 3 -0.017827 52.20750692157908 30.575207559839523 32.67033969026748 0 1 1
2043 5 3 -0.030409 52.26664863612975 31.547597949013422 30.351709328942253 0 1 1
2050 5 3 0.053259 53.09102817918039 31.657152566795762 32.98433375538691 0 1 1
2044 5 3 -0.046212 53.062865000216085 32.60052347507939 30.763582701823697 0 1 1
2217 5 5 0.0650900002 51.464150403387045 34.588454994335954 30.71124123504795 0 1 1
2037 5 3 0.050832 46.89813908043831 28.75651653466755 31.704354502013853 0 1 1
2039 5 3 -0.030409 48.88362519530705 61.47474197543151 30.388984393062966 0 0 1
1445 4 3 -0.046212 45.6873952022265 34.22502044995189 28.967263657074938 1 1 1
2204 5 3 -0.030409 50.704028220320666 35.01597478174022 31.328702419150442 0 1 1
2045 5 3 0.050832 53.53983836159935 32.564949552762165 32.048790573673564 0 1 1
2049 5 12 -0.2708210001 53.75909226488539 31.268624085625834 35.26982649047826 0 1 1
2057 5 5 0.0632240003 53.36033561525698 33.33553730636842 30.03948798803233 0 1 1
2035 5 1 0.2575330002 45.57160940036528 28.589277857019297 32.212908708803575 0 1 1
2055 5 5 0.0650900002 49.551783211727574 60.94483971662642 29.59382179689898 0 0 1
2038 5 3 -0.046212 47.605744913259954 61.07047477339644 30.776499771682808 0 0 1
1790 4 5 0.0643380001 28.71746095069179 31.208312044025735 31.182235409735075 1 1 1
1780 4 3 -0.038738 61.41322146118593 30.152310669845377 31.229842925676294 0 1 1
1781 4 3 0.023437 28.987503441551098 29.137901785440302 31.97861488853183 1 1 1
2048 5 1 0.2576279998 53.82965381062873 31.917329124956115 34.28441623562757 0 1 1
297 1 3 -0.030409 61.49547696769861 31.13228884925055 34.81751915325145 0 1 1
296 1 3 0.08280999980000001 28.583472679501586 29.896543485922148 35.40754458081455 1 1 1
1779 4 3 -0.029401 60.33852412403847 29.8025328926972 30.446608160994437 0 1 1
311 1 5 0.0632240003 60.203662087282694 32.41329409320477 33.76154389434833 0 1 1
2046 5 1 0.2575330002 54.50306441318479 33.50469763565582 32.754144923956815 0 1 1
2060 5 9 -0.2015900002 54.667320211823196 33.0397023527388 34.03593516084382 0 1 1
2047 5 12 -0.270822 55.1779056874834 34.40640426371659 32.21003796370415 0 1 1
301 1 12 -0.270822 57.268885200527286 31.557584608383298 33.18951318401606 0 1 1
299 1 3 0.050832 59.29257719160451 30.538643071003914 34.098874111563404 0 1 1
1533 4 5 0.0643810002 56.948856424551074 36.10223218540731 30.668375568215414 0 1 1
1795 4 5 0.06513400010000001 57.68232246184971 30.727164663061373 30.831442579224827 0 1 1
300 1 1 0.2575330002 57.86248592900158 30.56039364230674 33.611071756039955 0 1 1
1796 4 5 0.0643810002 56.14977274858779 32.07227545129524 29.511637297831832 0 1 1
1786 4 3 -0.037388 56.2259675076747 31.020073766203375 29.324393445337588 0 1 1
1785 4 3 -0.029358 57.26016091617902 30.27665833033624 29.961161783378326 0 1 1
298 1 3 -0.046212 60.31060804197696 31.44954839151876 34.169109956074486 0 1 1
2075 5 5 0.0643810002 55.27665110651442 35.688699251687794 34.28604455304792 0 1 1
2061 5 3 0.044175 55.63198779373426 33.636986401134706 34.93888574229382 0 1 1
2062 5 3 -0.037388 55.77849004502143 35.04588534642873 35.03727301250763 0 1 1
2082 5 5 0.0643810002 55.988420106491375 31.76510931556569 35.87485073852771 0 1 1
2074 5 3 -0.037388 56.29380244038818 32.8716710554784 35.875569993812114 0 1 1
2063 5 3 -0.029358 56.8193004463449 35.63854218977609 35.80383473733359 0 1 1
336 1 5 0.0643810002 55.79261400869857 28.725895799247827 35.73667372928239 0 1 1
314 1 9 -0.2015900002 57.38417353876116 29.22222104508662 33.768711619102206 0 1 1
328 1 3 -0.037388 55.364660871386306 28.459498085980243 34.75430690168369 0 1 1
1776 4 3 0.0821070002 57.627984316333325 28.992693132277356 29.44265308575585 0 1 1
1789 4 5 0.06513400010000001 59.89434571277637 30.546829707658553 29.77817717717544 0 1 1
1525 4 3 -0.037388 57.66560163764064 36.90184895182176 30.96129268379009 0 1 1
2076 5 5 0.06513400010000001 56.94835119122311 36.71223593090857 35.80060647296663 0 1 1
1532 4 5 0.06513400010000001 56.841991802695794 36.985043582703284 32.91626935245491 0 1 1
2064 5 3 0.0821070002 57.59487548115864 34.80030695753878 36.659000770706726 0 1 1
2077 5 5 0.06513400010000001 60.168762065151085 33.06923246493634 36.40491225736438 0 1 1
1511 4 9 -0.2015900002 58.60628667075391 36.99952134225667 28.64309164335653 0 1 1
1773 4 3 0.044175 55.62711418413532 30.507820084699873 61.2520417644955 0 1 0
1775 4 3 -0.029358 56.890498609380785 28.456390033011147 61.47783898004698 0 1 0
1530 4 5 0.0643810002 29.143848775746275 35.975907147152185 34.96248821394335 1 1 1
1703 4 3 -0.017827 33.05604936974036 37.14822212098129 29.83774700148538 1 1 1
1691 4 3 0.08280999980000001 32.407545664817384 37.169245530680115 28.631509775208958 1 1 1
1399 4 5 0.06592500010000001 31.009060659526668 37.17785961534933 33.541011867754065 1 1 1
1710 4 5 0.06592500010000001 32.81615915850873 37.92334407789548 30.598792470384755 1 1 1
2175 5 3 0.101217 33.85707206954402 39.86548685046199 35.08947730694348 1 1 1
2172 5 3 -0.043685 31.001777167051422 40.44827163209533 35.048012129867914 1 1 1
1008 3 5 0.0650900002 31.52489412765554 40.12603814803347 30.34660686213142 1 1 1
1004 3 3 -0.017827 35.86865701191524 39.17525166886501 29.268249656445136 1 1 1
1011 3 5 0.06592500010000001 35.24897553952841 38.38595178296936 28.824273279948848 1 1 1
2174 5 3 -0.029102 33.00631633122522 39.499271913207195 34.026320604067315 1 1 1
2189 5 5 0.0651460002 33.43585384373377 39.00280642265744 33.20153288073477 1 1 1
2173 5 3 -0.0561990001 31.602853340396447 39.74660898600719 33.9937245124615 1 1 1
2188 5 5 0.062665 30.93582317289878 39.31201499695459 33.257526463878875 1 1 1
2171 5 2 -0.012104 29.461099081639485 40.58346798052886 35.04900949194135 1 1 1
2186 5 6 0.033214 29.198772471295985 40.96626117760074 34.02942131313711 1 1 1
992 3 3 0.08280999980000001 35.356702738843296 40.23002769940727 30.1320818916999 1 1 1
995 3 3 -0.030409 31.790477631477508 40.80190684559824 29.529331287465627 1 1 1
994 3 3 0.08280999980000001 33.22564606517682 41.02550592508722 29.51061135953168 1 1 1
993 3 14 -0.3104160002 34.02692752503151 40.28570589408617 30.362484211396875 1 1 1
991 3 3 -0.030409 36.21594689039352 41.175236199490826 30.748672784774413 1 1 1
1007 3 5 0.0650900002 35.825509678039005 42.0164308682031 31.357368854021015 1 1 1
1199 3 12 -0.270822 29.69383949017946 43.24394658952147 30.69454131218662 1 1 1
657 2 5 0.0632240003 35.296292962730405 44.100510172773106 32.98366063551029 1 0 1
658 2 5 0.0650900002 35.006970846908956 42.1954058654358 34.434898464390976 1 0 1
2176 5 13 -0.358222 35.110373896680876 39.39053616151429 35.14179634111826 1 1 1
2190 5 8 0.218378 35.449200632209966 40.04110418776083 35.88920371219255 1 1 1
1229 3 5 0.06513400010000001 35.98425368891746 43.44010853078875 29.41893835172631 1 1 1
2170 5 2 0.015325 28.773605280442105 41.385839169482516 36.22065133722664 1 1 1
2184 5 4 0.047031 29.01749311190325 42.47709854464082 36.32754594602859 1 1 1
996 3 3 -0.046212 30.872003372882016 41.26214753089862 28.624353240167082 1 1 1
1212 3 9 -0.2015900002 29.853443714114906 44.57081136104728 28.807930898129783 1 1 1
2185 5 4 0.047031 29.121794454292736 40.91229889444643 37.19124208915757 1 1 1
1219 3 3 -0.029358 36.39769957864691 44.000519189153465 28.627365565361046 1 1 1
1009 3 5 0.0632240003 29.914221675422482 41.006795336982044 28.65054005544504 1 1 1
1198 3 1 0.2575330002 29.2479618931272 43.63420584920546 29.618482894277978 1 1 1
642 2 3 -0.030409 36.018750567520215 42.64291764299809 34.41250011737673 1 0 1
641 2 3 -0.046212 36.15197339868019 43.74424478369124 33.50862624451464 1 0 1
2177 5 3 0.1014749999 33.34649536282712 40.624393341471894 36.13553547240332 1 1 1
2179 5 3 -0.0261 31.91766470932892 40.904929309632294 36.09692332478413 1 1 1
1522 4 3 -0.037388 61.48969170722826 36.57624274012384 35.34280203771852 0 1 1
2187 5 6 0.033214 28.998503928663144 39.56290188618912 34.93988009475068 1 1 1
1692 4 14 -0.3104160002 31.41013760262291 38.07095934796945 61.51418567987285 1 1 0
1005 3 3 0.053259 37.236136959374534 39.14923243957308 29.06279185107297 1 1 1
990 3 3 -0.046212 37.60969672386798 41.13710097394804 30.535271595001262 1 1 1
989 3 3 0.050832 38.0139077940097 40.13796312408981 29.66462036495534 1 1 1
1006 3 5 0.0632240003 38.276463114231646 42.01424456708751 30.900592690379067 1 1 1
987 3 1 0.257535 39.34433571070238 39.91338400705418 29.132928973781056 1 1 1
973 3 5 0.0651200002 41.92081981546746 38.33591872434238 28.91870566076791 1 1 1
988 3 12 -0.270822 40.32540450893434 40.47320858420529 29.48089680140696 1 1 1
655 2 3 -0.017827 38.38411668439046 42.96494569232233 34.99736060097903 1 0 1
643 2 3 0.08280999980000001 37.129578061887045 42.29849382677519 35.15067252110305 1 0 1
662 2 5 0.06592500010000001 39.20927814450955 42.78930572429376 35.69359997138277 1 0 1
656 2 3 0.053259 38.407611629266796 44.01941395324995 34.133256284989045 1 0 1
964 3 3 -0.0561990001 44.05792869650971 39.57420232427902 31.47700546558278 1 1 1
965 3 3 -0.029102 43.41183589536901 40.310270191240114 32.44697980954278 1 1 1
980 3 5 0.0651460002 42.2795160849585 40.138766192389824 32.61838917016083 1 1 1
966 3 3 0.101217 44.15182087284171 41.201238753683285 33.244944564608225 1 1 1
644 2 14 -0.3104160002 36.98543554946834 41.34501031052437 36.13863499743529 1 0 1
659 2 5 0.0650900002 38.375931205299864 39.22635112314373 36.89678475438169 1 0 1
967 3 13 -0.358222 43.4130223683966 41.93062048875389 34.08849484624547 1 1 1
981 3 8 0.218378 42.69928560454885 41.3869588521994 34.309837448148684 1 1 1
982 3 8 0.218378 45.46967592694902 42.827070071659925 34.17125836938808 1 1 1
640 2 3 0.050832 37.29724787154812 44.4540449674015 33.427588638348354 1 0 1
974 3 7 0.1496919999 43.75223476246937 39.750870180415966 28.801291786627825 1 1 1
977 3 6 0.033214 46.17012738326458 37.93782541421253 30.19071910484431 1 1 1
979 3 5 0.062665 43.500111319588385 39.12845751638582 30.73233531968661 1 1 1
968 3 3 0.1014749999 45.50792003840997 41.41583820930202 33.03813651606071 1 1 1
2211 5 3 0.053259 48.7982067016835 35.922728137242466 32.95122295907937 0 1 1
1940 5 3 0.08280999980000001 52.2594747767384 36.173680932790106 35.73614441907694 0 1 1
2209 5 1 0.2576279998 47.713994681467454 36.23725416864788 33.95093148377703 0 1 1
963 3 3 -0.043685 45.48739984918545 39.676013391229475 31.367556253334474 1 1 1
970 3 3 -0.0261 46.23492019122226 40.48305034842079 32.27878199630173 1 1 1
969 3 13 -0.3582139999 46.19428229019437 42.43078667466466 33.699996559039306 1 1 1
961 3 2 0.015325 45.89965041865286 39.53374458663833 28.813380440121495 1 1 1
962 3 2 -0.012104 46.24862708286254 39.009716366765375 30.229170977511345 1 1 1
975 3 4 0.047031 46.10915762760479 40.623450346898345 28.804167014524968 1 1 1
978 3 6 0.033214 47.32077925113883 39.034878711493036 30.512335670203477 1 1 1
983 3 5 0.06543099989999999 47.31414305887492 40.69612753321422 32.20564256567105 1 1 1
2212 5 3 -0.017827 49.306810933068064 36.87579420078889 32.10199314251221 0 1 1
2210 5 12 -0.2708210001 47.067874227586735 37.26198713427761 34.19842941315255 0 1 1
1941 5 14 -0.3104160002 51.36650214796704 36.927475942689036 34.93510057922092 0 1 1
2203 5 3 0.08280999980000001 50.34645794288433 36.449779552642404 31.27357341708723 0 1 1
2219 5 5 0.06592500010000001 49.0294399297194 37.9172355999947 32.2363306627422 0 1 1
1942 5 3 0.08280999980000001 50.862995978314224 38.0846883878571 35.438950009993405 0 1 1
1956 5 5 0.0650900002 51.79267776301856 39.28329324644481 33.961703724503046 0 1 1
1943 5 3 -0.030409 51.17176447473025 39.2863616125382 34.80891600810121 0 1 1
1944 5 3 -0.046212 50.815622023306474 40.48038124532414 35.47935179299103 0 1 1
1957 5 5 0.0632240003 51.15890001729388 41.43961282795138 34.982593388976674 0 1 1
2202 5 14 -0.3104160002 51.01212491415755 37.29903008940974 30.341082850974004 0 1 1
2201 5 3 0.08280999980000001 52.13848489493624 38.05296271160347 30.540122324484688 0 1 1
2200 5 3 -0.030409 52.48932788716042 39.065431586997235 29.595266238200576 0 1 1
2220 5 5 0.06592500010000001 52.56528992084763 37.07661645183464 32.44889278826412 0 1 1
2213 5 3 -0.017827 52.82592051404664 37.86861644548827 31.76355014118338 0 1 1
2216 5 5 0.0650900002 51.9322417340577 39.127894045915234 28.668041590415797 0 1 1
2199 5 3 -0.046212 53.528081652801475 39.96959850267763 29.898833471353836 0 1 1
2215 5 5 0.0632240003 53.7630006424587 40.655373904163355 29.129630940608372 0 1 1
1524 4 3 -0.029358 57.58336546831406 37.34468451358411 32.27772011141457 0 1 1
1512 4 3 0.044175 58.562026297641026 37.444982734195726 29.988344273111547 0 1 1
1531 4 5 0.06513400010000001 60.67239247103656 36.602592386775726 33.33834812737696 0 1 1
1523 4 3 -0.029358 60.58256711201909 36.995496334401764 34.35958079642998 0 1 1
1517 4 3 0.0821070002 59.57934867008866 37.92664667302304 34.82917483286589 0 1 1
2214 5 3 0.053259 53.91724212538745 38.75004563134934 32.00097372554512 0 1 1
2194 5 12 -0.2708210001 54.54975626779478 38.491081255242705 34.31341550756198 0 1 1
2195 5 1 0.2576290002 54.61155242989693 39.069623973827824 33.25170792615543 0 1 1
2198 5 3 0.050832 54.146733782170315 39.86373855807753 31.139503998868854 0 1 1
2197 5 12 -0.270822 55.73408418116345 41.76050779846535 31.221062061402424 0 1 1
2196 5 1 0.257535 55.20614280679331 40.74963692045157 31.7042537742573 0 1 1
1526 4 5 0.0643810002 60.245930589672625 38.71126465278903 29.785542811546637 0 1 1
1513 4 3 -0.037388 59.549771861263594 38.26931260619525 30.4548806186602 0 1 1
1514 4 3 -0.029358 59.55831098050875 38.682519822810704 31.790580303439317 0 1 1
2164 5 9 -0.2014969998 55.37198623499769 40.20112622183411 32.98471248360202 0 1 1
2183 5 7 0.1496919999 59.94934951679255 40.889460962101744 36.99865906499738 0 1 1
2182 5 5 0.0651200002 58.02009979038117 41.3217146440864 33.02259199990754 0 1 1
2163 5 3 0.046667 56.06968098073301 40.82048770644971 34.068705592730694 0 1 1
2165 5 3 -0.027289 57.435266121819616 41.33900806181213 33.932021851589425 0 1 1
1515 4 3 0.0821070002 58.593781087210104 38.23332888934184 32.67471017729454 0 1 1
1527 4 5 0.06513400010000001 60.28898412328687 39.41183263970326 32.18554806859167 0 1 1
2181 5 5 0.0663080001 54.53986972514743 40.57538131230138 35.604861350469115 0 1 1
2162 5 3 -0.017728 55.54250602679967 40.87315682241431 35.40142930690662 0 1 1
2169 5 10 -0.3110300001 60.36782960157693 41.30960542444035 36.20343154368361 0 1 1
1516 4 14 -0.310465 58.63982145501702 38.52954314302697 33.993367029848535 0 1 1
1197 3 3 0.050832 61.059840750668556 43.24896171388525 29.04149878218769 0 1 1
1209 3 5 0.0632240003 60.12538152378744 41.564242481293 30.27616265938049 0 1 1
1196 3 3 -0.046212 60.083300620358244 42.27384531194363 29.424922023777285 0 1 1
2166 5 3 0.040792 58.19940408064008 41.57292500124412 35.16181790483249 0 1 1
2167 5 1 0.2430250001 59.63984730812459 41.826546061274506 35.15648419011941 0 1 1
1518 4 3 -0.029358 59.47234565272338 38.20195722738789 36.18421079684727 0 1 1
558 2 5 0.0650900002 56.70973265351111 44.48927529112986 32.96183255649644 0 0 1
542 2 3 -0.030409 57.694263976455055 44.91412075816245 33.20530430116105 0 0 1
2180 5 3 -0.027289 57.59333684899377 41.51006643514874 36.4300861698841 0 1 1
2168 5 12 -0.271952 60.1723589074798 42.43264604941105 34.299903720434195 0 1 1
544 2 14 -0.3104160002 57.16845541825162 44.621939734908025 35.46708452309774 0 0 1
1208 3 5 0.0650900002 58.06664556448233 41.66130999400534 28.938251938839635 0 1 1
1195 3 3 -0.030409 58.95101727813848 42.28988902567956 28.603868839249635 0 1 1
2161 5 3 0.046667 56.25719147527525 41.16556537019291 36.59131670220792 0 1 1
1952 5 3 -0.017827 53.14847816669388 36.824129454332464 36.59748470863523 0 1 1
1959 5 5 0.06592500010000001 53.21180765269072 37.91073727821198 36.583166777021965 0 1 1
1500 4 12 -0.2708210001 60.86136728008732 36.26646952423906 61.411384417056595 0 1 0
1218 3 3 0.0821070002 36.18137068656134 45.41029339416437 28.54444501563717 1 1 1
1213 3 3 0.044175 31.1506309119455 45.08541493435659 29.006330173830012 1 1 1
1227 3 5 0.0643810002 31.12856843976451 44.9429007489007 31.147749764143594 1 1 1
1214 3 3 -0.037388 31.68956243511216 45.181059298819804 30.25936246247912 1 1 1
1215 3 3 -0.029358 33.02093879848235 45.54564139149903 30.466215497125955 1 1 1
1216 3 3 0.0821070002 33.89975646804523 45.72747927973465 29.358592307048692 1 1 1
1228 3 5 0.06513400010000001 33.41390621935304 45.700686182884525 31.47243357793122 1 1 1
1217 3 14 -0.310465 35.272219987753274 45.956269228654335 29.45319775261997 1 1 1
504 2 3 -0.017728 31.208133106294287 47.16997193435729 32.982265114946706 1 0 1
491 2 12 -0.2708210001 33.557947522174715 45.48823134485565 34.095914739657054 1 0 1
523 2 5 0.0663080001 31.162580610810423 46.428749621514676 33.78858730427379 1 0 1
490 2 1 0.2576290002 34.057657838872316 46.61387021251141 34.21198178935558 1 0 1
507 2 3 -0.027289 30.0839414190721 48.46244519997327 31.294074772202325 1 0 1
524 2 5 0.0651200002 29.15872486016037 48.94164611963768 30.93651316433581 1 0 1
508 2 3 0.040792 31.261519783930233 49.03882365010524 30.82037914736633 1 0 1
522 2 3 -0.027289 32.43373996930133 48.75305192651125 31.56478361873372 1 0 1
525 2 7 0.1496919999 30.14999550035258 51.23486611437466 31.34200397915376 1 0 1
511 2 10 -0.3110300001 30.454659546569548 51.269249382455016 30.365395178122018 1 0 1
512 2 2 0.015325 30.192010604875627 52.533045063811585 29.714272619338058 1 0 1
509 2 1 0.2430250001 31.197028637061358 50.17315292405195 29.82864015022156 1 0 1
2567 6 3 -0.037388 32.96151403819616 52.85493806217694 32.240296778726176 1 0 1
2577 6 5 0.0643810002 33.040563503903556 51.772985344185486 32.22302866005115 1 0 1
535 2 5 0.0651200002 33.33200992847226 49.3306992384596 31.307997127678046 1 0 1
510 2 12 -0.271952 31.78628223709607 50.12279316002558 28.74234338017054 1 0 1
503 2 3 0.046667 32.44269326597945 47.88989964110175 32.67974654101011 1 0 1
505 2 3 0.046667 30.02726016730157 47.530558650848675 32.31848034259771 1 0 1
2569 6 9 -0.2015900002 34.08188625218537 53.05668745140501 30.06261400836829 1 0 1
502 2 9 -0.2014969998 33.521744806141065 47.81050928599206 33.62673280257344 1 0 1
489 2 12 -0.270822 34.33256867506178 49.97479275778156 33.4344595629361 1 0 1
488 2 1 0.257535 34.39625602126924 48.85139797103832 33.88775733924017 1 0 1
2583 6 1 0.2576279998 34.6833172145129 51.81231513407532 30.108618946476376 1 0 1
2582 6 12 -0.2708210001 35.295800086404576 51.394453258502686 31.060149513716706 1 0 1
500 2 5 0.06592500010000001 36.12546620562065 45.140666000508745 35.881297987026684 1 0 1
492 2 3 0.053259 35.287181738577104 46.97229860004354 34.955991017389 1 0 1
2350 6 3 -0.017827 29.470005595207528 50.206678017337616 35.30917130951033 1 0 1
2357 6 5 0.06592500010000001 30.331680074793894 50.55471669862257 34.73532541757916 1 0 1
2358 6 5 0.06592500010000001 33.11413615834868 50.60748912628451 36.05983542223593 1 0 1
487 2 3 0.050832 35.54925290537291 48.24336993892071 34.72784249675184 1 0 1
493 2 3 -0.017827 36.226805048564344 46.2125594642594 35.6626003009562 1 0 1
2608 6 5 0.06592500010000001 35.256806271327704 49.21687838915423 29.017606256602935 1 0 1
2332 6 12 -0.2708210001 35.26926905332454 52.428547007974416 35.10812845508888 1 0 1
2576 6 5 0.06513400010000001 31.630746530989292 52.62024172212471 33.91394412892583 1 0 1
2352 6 3 0.053259 33.28199150258505 52.65175693543899 36.52677768168763 1 0 1
486 2 3 -0.046212 36.620537025898656 48.939575185807755 35.19576160798221 1 0 1
2333 6 1 0.2576290002 34.40572993867571 53.13393197755064 35.664359085656976 1 0 1
2351 6 3 -0.017827 32.68496020708558 51.445426165394935 36.56365356866031 1 0 1
499 2 5 0.0632240003 36.62849553270159 50.03505829831323 35.044150691583745 1 0 1
637 2 1 0.2576279998 39.431185545658586 45.057814515027374 33.932918707875054 1 0 1
636 2 12 -0.2708210001 40.50262501862652 45.055844933731635 34.58378024339737 1 0 1
639 2 12 -0.270822 36.830360616440615 46.407713235601115 32.09630344317837 1 0 1
638 2 1 0.2575330002 37.58169999095825 45.726393195022425 32.78985513269947 1 0 1
623 2 9 -0.2015900002 38.8972244204489 46.06493041848158 33.12079546073331 1 0 1
631 2 5 0.0643810002 37.91134046936491 48.63117359160913 32.68839951559383 1 0 1
622 2 3 0.044175 39.62486135337811 47.396704553241264 33.0573545590967 1 0 1
624 2 3 -0.037388 41.05781241455708 47.481171199563306 33.10571778821709 1 0 1
2295 6 5 0.0632240003 37.955221518951916 52.193939732766424 29.031429056669282 1 0 1
621 2 3 -0.037388 38.96252482806692 48.58782142348077 32.8579364792811 1 0 1
630 2 5 0.06513400010000001 39.02207496425551 50.656405403185225 32.63157816472356 1 0 1
620 2 3 -0.029358 39.64722009797193 49.8022886871494 32.80931249048621 1 0 1
619 2 3 0.0821070002 41.031012803076756 49.92538941571695 33.050924863403495 1 0 1
625 2 3 -0.029358 41.73071043587073 48.70636229058152 33.13673775590057 1 0 1
618 2 14 -0.310465 41.65632483824059 51.08462771982356 33.45807410555573 1 0 1
632 2 5 0.0643810002 41.65074251408764 46.60457532836273 33.09491368116895 1 0 1
617 2 3 0.0821070002 41.387671046134905 51.47704133456469 34.79519068005186 1 0 1
633 2 5 0.06513400010000001 42.78562557923941 48.81064759146668 33.38710052459436 1 0 1
634 2 5 0.06513400010000001 41.20127045699328 49.441014073514694 35.63413927169249 1 0 1
484 2 3 0.08280999980000001 37.35286062998207 46.875065529884736 36.201458064269985 1 0 1
626 2 3 -0.029358 41.20882896005742 50.52103805203973 35.86384482779779 1 0 1
485 2 3 -0.030409 37.503704466345255 48.293195237839356 36.086796351944116 1 0 1
183 1 5 0.0643810002 44.046123977572705 49.692860886119476 36.31358547136444 0 0 1
175 1 3 -0.037388 44.853336647026765 49.019359563727875 35.990961267601435 0 0 1
498 2 5 0.0650900002 38.187423738252235 48.8977518432218 36.66563971715223 1 0 1
187 1 12 -0.2708210001 44.75837673435994 52.04181356367883 35.42928832795512 0 0 1
188 1 1 0.2576279998 44.693290570011 51.58941351443501 34.3151143385117 0 0 1
176 1 3 -0.029358 45.22037967698178 48.043225927169516 36.9222735671207 0 0 1
2282 6 3 -0.046212 37.513480859234164 53.11793093861159 28.717668307326022 1 0 1
483 2 14 -0.3104160002 38.18838359474953 46.150298417315796 37.01361981073818 1 0 1
207 1 3 0.053259 44.34639470878466 52.37864692191839 33.081315090139526 0 0 1
191 1 3 0.050832 44.39816159440011 51.467612357963574 32.0209066785293 0 0 1
192 1 3 -0.046212 44.333378918412066 51.88393828395644 30.720370469760567 0 0 1
616 2 3 -0.029358 41.232313882551836 52.838471535851305 35.0948518612876 1 0 1
2285 6 12 -0.270822 37.765357777781745 53.31896796532697 31.700425768950936 1 0 1
627 2 3 -0.037388 41.02464645464693 50.87323548654064 37.184351668579744 1 0 1
614 2 3 0.044175 41.02673586521817 52.29500421889193 37.48237250977869 1 0 1
174 1 9 -0.2015900002 44.97386241706593 50.283182241561875 33.88990506894787 0 0 1
189 1 1 0.2575330002 44.80811381675541 50.1261459481897 32.541154515648905 0 0 1
208 1 5 0.0632240003 44.28697528139764 51.237951831554774 29.847952911426283 0 0 1
190 1 12 -0.270822 44.92531716378399 49.0809144122119 31.924136088221964 0 0 1
173 1 3 0.044175 45.37488916322681 49.15263030597589 34.706559705137245 0 0 1
172 1 3 -0.037388 46.34841201405335 48.21394467650651 34.28510797651706 0 0 1
182 1 5 0.0643810002 46.85496070796301 48.249621538788496 33.34533662886288 0 0 1
38 1 3 0.050832 48.590904650806294 51.2953887565193 33.82952022903621 0 0 1
39 1 1 0.257535 48.772351968227305 51.068642228672516 32.31556513793862 0 0 1
40 1 12 -0.270822 49.23858989862065 50.07404174847669 31.80371810726993 0 0 1
54 1 3 0.046667 48.959647792662324 52.61644445070434 30.31509169534941 0 0 1
53 1 9 -0.2014969998 48.75893088699136 52.33245803986971 31.747770021341676 0 0 1
43 1 3 0.053259 48.2386332384884 52.60459825411114 34.02615340725694 0 0 1
37 1 3 -0.046212 48.734822353505066 50.41517693208308 34.9364567052352 0 0 1
50 1 5 0.0632240003 48.95187391012928 49.39953493845387 34.80569560149768 0 0 1
170 1 3 0.0821070002 46.26573550082104 47.21576339547221 36.54174384379455 0 0 1
171 1 3 -0.029358 46.81162550890217 47.295058242750116 35.21045110443317 0 0 1
181 1 5 0.06513400010000001 47.69258847525508 46.64554994814422 35.10236541207004 0 0 1
363 1 5 0.06592500010000001 51.22730933929877 50.752820606653884 36.48967877667328 0 0 1
36 1 3 -0.030409 48.4782799169629 50.9279755511141 36.19328395821575 0 0 1
35 1 3 0.08280999980000001 48.11617377817822 52.31538963537435 36.42911709094963 0 0 1
2535 6 12 -0.270822 51.61918970990379 50.37304086192856 28.816969499604276 0 0 1
2518 6 3 0.044175 52.48713318337812 47.44970182156745 28.530341308433524 0 0 1
2534 6 1 0.2575330002 52.08118293556325 49.69336971507359 29.741260783151976 0 0 1
2553 6 5 0.0632240003 51.85864434517478 52.180855616015336 30.976249124158315 0 0 1
86 1 5 0.0651200002 47.944917990824834 50.8443156370284 29.56356683788648 0 0 1
2519 6 9 -0.2015900002 52.45036309997002 48.329139521236016 29.71619001935874 0 0 1
2536 6 3 0.050832 52.367148575601206 50.15024620690801 31.10370606093062 0 0 1
2537 6 3 -0.046212 52.22694757083549 51.446911343088836 31.62712357694608 0 0 1
2533 6 1 0.2576279998 53.00112123407672 47.99265147414774 30.972372167950315 0 0 1
2532 6 12 -0.2708210001 53.542393540091126 46.963163601009995 31.220820823344088 0 0 1
41 1 1 0.2576290002 48.36088486430529 53.268782314037466 32.73830722949782 0 0 1
337 1 12 -0.2708210001 50.97225898148835 53.59972233338474 35.198649465565154 0 0 1
338 1 1 0.2576279998 51.930437258787485 53.548458074753 35.9263839400514 0 0 1
2552 6 3 0.053259 52.936398341337636 49.1910548253437 31.826815393245138 0 0 1
44 1 3 -0.017827 47.899019635605114 53.166962926737554 35.31876675614418 0 0 1
357 1 3 0.053259 52.289389679380704 52.59184282311425 36.95171185330422 0 0 1
73 1 3 -0.027289 48.61231975966164 51.64664263217817 29.35616573332237 0 0 1
543 2 3 0.08280999980000001 58.06992330576742 44.974484409875885 34.56234547165968 0 0 1
557 2 5 0.0632240003 58.201784819810314 45.38149055612941 31.091681293476363 0 0 1
541 2 3 -0.046212 58.52333673016933 45.30914598900371 32.1490796678738 0 0 1
506 2 9 -0.2014969998 28.78211141991567 46.92236341507253 32.67202970452471 1 0 1
536 2 12 -0.2708210001 29.04927744816245 46.80728273456297 35.02342530014634 1 0 1
528 2 6 0.033214 61.17874823343688 52.23082334023362 29.83010019723875 0 0 1
2538 6 3 -0.030409 52.68306101853184 51.680405766051294 32.938907561276054 0 0 1
2554 6 5 0.0650900002 52.62450132595397 52.58323581757326 33.487588189670404 0 0 1
2348 6 12 -0.2708210001 61.161502167822704 50.66648847360837 32.379035930705314 0 0 1
2349 6 3 0.053259 61.22400156226222 50.10835534852845 34.784633559313136 0 0 1
537 2 1 0.2576290002 61.55475697233764 46.567263487561874 33.969708286119335 0 0 1
2347 6 1 0.2576279998 60.649709512969636 50.21994335198707 33.380852605999905 0 0 1
539 2 12 -0.270822 61.06851456385685 46.35544646787493 30.582485765724734 0 0 1
538 2 1 0.257535 60.9450163146189 46.37518975094505 31.79248559505553 0 0 1
540 2 3 0.050832 59.81673773155412 45.87112671143369 32.55673483958369 0 0 1
2528 6 5 0.0643810002 54.582620185227285 46.82551276811823 28.59639485215628 0 0 1
2379 6 5 0.06513400010000001 57.380201461953334 47.913684077453354 28.479734488117614 0 0 1
2374 6 5 0.0643810002 59.094911507278916 51.48620295979656 31.362277844140817 0 0 1
2361 6 3 -0.037388 58.33942683365227 50.699156511689054 31.36302207157473 0 0 1
2375 6 5 0.06513400010000001 57.49207016829397 51.533153420374425 29.66326725097546 0 0 1
2362 6 3 -0.029358 57.40254929107703 50.70321951878586 30.391040801290487 0 0 1
2363 6 3 0.0821070002 56.531617214703985 49.72271902998177 30.229449455769366 0 0 1
2364 6 14 -0.310465 55.68404921665112 49.73648616727786 29.090209829725694 0 0 1
2372 6 3 -0.029358 56.53842817029293 48.62892372677227 31.13763465742234 0 0 1
2380 6 5 0.06513400010000001 55.99325997482638 47.717792305041186 30.88208288560671 0 0 1
2360 6 3 0.044175 58.393560752208245 49.64537245843043 32.31927558096274 0 0 1
2557 6 5 0.06592500010000001 55.26283738784299 52.29375847149143 33.5686314082805 0 0 1
2551 6 3 -0.017827 53.47008615867502 49.3824550766278 33.12609231528974 0 0 1
2373 6 3 -0.037388 57.50847273340946 48.5723870310675 32.1612311538786 0 0 1
556 2 3 0.053259 60.213260568148016 45.85155844956556 33.90170541125935 0 0 1
555 2 3 -0.017827 59.366709936525126 45.53320460749659 34.89283286152743 0 0 1
2359 6 9 -0.2015900002 59.286969448057405 49.6694891988962 33.43636171658448 0 0 1
2345 6 1 0.2575330002 58.94744273229534 49.42811062055344 34.73867615148579 0 0 1
2539 6 3 0.08280999980000001 53.31627270190465 50.65462460462602 33.66720937851439 0 0 1
2558 6 5 0.06592500010000001 53.964822944092234 48.594031461036295 33.63459166058917 0 0 1
2550 6 3 -0.017827 55.700929473346406 52.14177376694154 34.603631190626174 0 0 1
2381 6 5 0.0643810002 57.53799540560226 47.767109891261136 32.90173254446124 0 0 1
2540 6 14 -0.3104160002 53.641117899693526 50.884621599015105 34.96342035351349 0 0 1
2549 6 3 0.053259 56.993644897749654 52.3739503421862 35.024490272385975 0 0 1
2541 6 3 0.08280999980000001 54.92773126883053 51.274911757666246 35.429934066291885 0 0 1
2344 6 3 0.050832 60.160208177961294 49.633652735000624 35.53518730351657 0 0 1
2346 6 12 -0.270822 57.84313750928067 49.094351522133906 35.19486730679691 0 0 1
562 2 5 0.06592500010000001 59.61708814566282 45.77432962017223 35.878917974494875 0 0 1
559 2 5 0.0650900002 55.05248793342426 46.277218654598144 35.64916369183741 0 0 1
2544 6 3 0.050832 57.43593751631035 52.08620376436951 36.26844490803053 0 0 1
546 2 3 -0.030409 55.79832839455524 46.32316873905046 36.442114474473804 0 0 1
2261 6 7 0.1426590002 56.112056361596224 53.957727384298664 30.70883960235153 0 0 1
2246 6 11 -0.3582950001 55.630941567066905 53.75540397502564 29.860042832068892 0 0 1
2262 6 7 0.1426590002 54.63378507542555 53.51279611331918 29.959557122390006 0 0 1
2545 6 1 0.2575330002 58.77241095876465 52.57901394112857 36.428495860341414 0 0 1
530 2 5 0.062665 60.034255940582426 50.39975804635648 28.70577960100035 0 0 1
2581 6 5 0.0643810002 60.45880909896921 53.154322411676475 32.67621983678282 0 0 1
2547 6 1 0.2576279998 58.08371996724822 53.12815434356385 34.304210995481085 0 0 1
2559 6 9 -0.2015900002 59.15840395145925 53.14581136768372 35.213061565450246 0 0 1
545 2 3 0.08280999980000001 56.84256136810492 45.42179767727037 36.538289751039855 0 0 1
295 1 14 -0.3104160002 29.751198287318413 29.666269552333866 36.02235659943313 1 1 1
527 2 4 0.047031 30.220186165259445 53.34497200044765 30.43359048166843 1 0 1
2568 6 3 0.044175 33.566602888116684 53.677938120746305 31.247802882232847 1 0 1
1581 4 5 0.06513400010000001 33.82225816372335 61.49203946238234 29.903368667951835 1 0 1
2566 6 3 -0.029358 32.15972394211053 53.31140829192106 33.27773712288366 1 0 1
1573 4 3 -0.029358 32.852364061047204 61.01836057506446 29.990601740262996 1 0 1
1572 4 3 -0.037388 31.756189485091653 61.2634442063478 29.07588619240666 1 0 1
1791 4 7 0.1426590002 30.514305049148888 28.838339668554095 33.36204328417951 1 1 1
1565 4 3 0.0821070002 33.60870789069915 60.44226454870917 33.00008101673681 1 0 1
2580 6 5 0.06513400010000001 29.68829557639843 53.965194711654625 32.429509948758174 1 0 1
2572 6 3 -0.029358 29.222823838032753 54.03206167695551 33.38358013089532 1 0 1
1566 4 14 -0.310465 33.6450799727188 59.68135830141348 31.80816040078193 1 0 1
1567 4 3 0.0821070002 32.637313672070704 59.97095279795901 30.92864009082889 1 0 1
2570 6 3 -0.037388 33.4177028544465 55.063101757635415 31.39342054426859 1 0 1
2571 6 3 -0.029358 32.59694451388152 55.554843700486074 32.40048668121903 1 0 1
2565 6 3 0.0821070002 32.03365114643681 54.70424423969575 33.338990090130224 1 0 1
1574 4 3 -0.029358 33.8351265099215 59.86094617862322 34.27409286908746 1 0 1
2579 6 5 0.06513400010000001 32.37049140122981 56.603553134695666 32.377971430925 1 0 1
1568 4 3 -0.029358 31.39712941166104 59.26072717697983 31.01385550848231 1 0 1
1578 4 5 0.06513400010000001 31.34952276759343 58.42332953185993 31.73535786632683 1 0 1
1569 4 3 -0.037388 30.377859854727298 59.536791867885725 30.117085035359114 1 0 1
1579 4 5 0.0643810002 29.384105924120075 59.091029828849344 30.23428684498196 1 0 1
2564 6 14 -0.310465 31.186251389359214 55.23183271096829 34.2343448763798 1 0 1
2578 6 5 0.0643810002 33.77600685357214 55.69776725007988 30.552396869821358 1 0 1
1582 4 5 0.06513400010000001 33.81403549436017 58.77116861191773 34.3377492599891 1 0 1
1575 4 3 -0.037388 33.95323261352286 60.696839838334284 35.35967441217606 1 0 1
2563 6 3 0.0821070002 29.948788962124226 54.61328814580418 34.44694903566763 1 0 1
2287 6 12 -0.2708210001 36.221153021506126 57.35776600193821 30.39463736739435 1 0 1
2319 6 5 0.0663080001 35.28439828750177 54.04740630188269 33.13509142407264 1 0 1
2300 6 3 -0.017728 35.613624006116595 54.959450595427825 33.56567295194056 1 0 1
2562 6 3 -0.029358 29.396030954186337 54.79379697613691 35.69586007998062 1 0 1
2301 6 3 0.046667 35.25279425221058 55.339964919893156 34.90677246328914 1 0 1
2302 6 9 -0.2014969998 34.42886259281315 54.510702554836435 35.68393204682346 1 0 1
2303 6 3 -0.027289 35.771111348474996 56.54256218295492 35.43061746680923 1 0 1
309 1 5 0.0650900002 31.169431036794574 60.78246804185132 35.616410736465575 1 0 1
1583 4 5 0.0643810002 33.88474788642721 60.13231377719267 36.27905876410381 1 0 1
1570 4 3 0.044175 30.55828450867658 60.462320097324536 29.135022899994027 1 0 1
2286 6 1 0.2576290002 36.484263526269515 56.171461492676144 30.380410782129445 1 0 1
2298 6 9 -0.2014969998 36.840076409943116 55.42936657361116 31.465134077974277 1 0 1
2299 6 3 0.046667 36.47519144867442 55.760969991385835 32.8191752890978 1 0 1
2288 6 3 0.053259 36.59756389982786 55.30273988463921 29.17290283853453 1 0 1
2320 6 5 0.0651200002 35.524150503026135 56.869840499845616 36.42366883659247 1 0 1
2304 6 3 0.040792 36.53799592049664 57.38672319470916 34.61311807373702 1 0 1
2575 6 5 0.06513400010000001 29.883059905085922 55.50046583765515 36.421602841009786 1 0 1
2334 6 1 0.257535 33.414393479908014 54.990551814313136 36.55251516582835 1 0 1
2561 6 3 -0.037388 61.24652444857267 54.270868457580576 36.017798513792826 0 0 1
2284 6 1 0.257535 37.39444685014207 54.27190195337678 31.020370747192498 1 0 1
2573 6 3 -0.037388 61.01544814969563 53.53170313669157 33.57681206641027 0 0 1
2335 6 12 -0.270822 33.124655604589634 56.14869995754296 36.70390033483343 1 0 1
2323 6 4 0.047031 36.53961987247043 61.099433311860466 35.8038015930907 1 0 1
2307 6 10 -0.3110300001 36.722545123222325 59.09547148040561 36.43664556224082 1 0 1
1676 4 5 0.0643810002 40.67018700785076 29.47608935124846 30.928593827063736 1 1 1
2027 5 5 0.06513400010000001 41.01482865507093 28.467882805773527 34.438638947601646 0 1 1
615 2 3 -0.037388 41.15405492343041 53.23771575641859 36.458321194886565 1 0 1
629 2 5 0.06513400010000001 41.28725790192711 53.51511671660655 34.30668721491853 1 0 1
628 2 5 0.0643810002 41.12195375362402 54.27628881401205 36.666876134747696 1 0 1
2283 6 3 0.050832 37.17140464848545 54.12975808863388 29.598095974463156 1 0 1
2437 6 3 -0.046212 39.927527174246755 56.62246944506237 30.239405941930723 1 0 1
2438 6 3 -0.030409 39.48175288888508 57.91496346029512 30.467072510076314 1 0 1
2453 6 5 0.0632240003 39.97233198734777 55.952422325004406 31.078941062598954 1 0 1
2454 6 5 0.0650900002 39.13423388984562 58.2215349183507 31.463080440953085 1 0 1
2331 6 5 0.0651200002 37.50034731049422 57.59310380903959 32.69968956703665 1 0 1
2318 6 3 -0.027289 36.91240583890788 56.972727768452515 33.331503660936505 1 0 1
2440 6 14 -0.3104160002 38.98952855689297 60.19615754393871 29.657737127017896 1 0 1
2439 6 3 0.08280999980000001 39.52177035771543 58.933551103427114 29.461779625319622 1 0 1
2306 6 12 -0.271952 37.835226320182 59.30093771895994 34.411899278337444 1 0 1
2305 6 1 0.2430250001 37.090662279396625 58.69791391601055 35.14641578085527 1 0 1
212 1 5 0.06592500010000001 43.18185463802635 57.27261300594074 33.30565048539778 0 0 1
2441 6 3 0.08280999980000001 37.95646721170465 60.63011893032032 28.891808757226695 1 0 1
868 2 5 0.0632240003 42.217602539260454 56.14572423641348 35.927667377375414 1 0 1
193 1 3 -0.030409 44.18106139475699 53.283326288956346 30.524493838865098 0 0 1
206 1 3 -0.017827 44.27063315494064 53.751070861087975 32.91646128882171 0 0 1
2036 5 12 -0.270822 44.820300868957894 60.866756032986814 31.798622235727755 0 0 1
213 1 5 0.06592500010000001 44.432363846810084 54.45980754234262 33.748345932151594 0 0 1
194 1 3 0.08280999980000001 44.17142958055074 54.21281917732247 31.596860618063378 0 0 1
203 1 12 -0.2708210001 43.94209801916594 59.05776288000772 35.4449656151201 0 0 1
209 1 5 0.0650900002 44.14936217157305 53.674581661829535 29.524540230477225 0 0 1
850 2 12 -0.270822 39.36941416301531 56.00050208334652 36.45212611815579 1 0 1
236 1 5 0.0643810002 48.00393764800993 28.65394033928719 35.061330396380406 0 1 1
228 1 3 -0.037388 47.546498811882586 61.52317883978044 36.02716246003894 0 0 1
55 1 3 -0.017728 49.693001682291914 53.75576022486889 29.912122766858275 0 0 1
195 1 14 -0.3104160002 43.94740085574744 55.5441416131675 31.315967008029876 0 0 1
205 1 3 -0.017827 44.241935271126195 57.28771735986578 33.00911258284961 0 0 1
196 1 3 0.08280999980000001 44.769489631210625 56.493357383599786 31.926012171159 0 0 1
335 1 5 0.06513400010000001 53.555384603361794 60.65651470170236 35.536493369441885 0 0 1
74 1 5 0.0663080001 49.976381285022015 54.49268488039443 30.650991325670798 0 0 1
42 1 12 -0.2708210001 48.08255300510818 54.421228483001016 32.598808896395155 0 0 1
51 1 5 0.06592500010000001 47.54716830336113 54.130633446929025 35.51975319702811 0 0 1
202 1 1 0.2576279998 45.013968271131354 58.948502616488156 34.851700601252375 0 0 1
204 1 3 0.053259 45.196957523947816 58.095090140433584 33.6640859469085 0 0 1
210 1 5 0.0650900002 46.471270321883935 56.024049091950964 30.66640131673395 0 0 1
2054 5 5 0.0632240003 47.05619938127488 60.2641255455041 30.302446715498675 0 0 1
214 1 9 -0.2015900002 46.273447857591655 59.570207731906464 35.08274646060614 0 0 1
197 1 3 -0.030409 46.06309765437515 56.6821815382598 31.429812684454166 0 0 1
199 1 3 0.050832 46.48664795232419 58.18502823005932 33.27260219819755 0 0 1
200 1 1 0.2575330002 47.25742208427344 59.047842766232364 34.18885021209688 0 0 1
201 1 12 -0.270822 48.4859485943491 59.281876196009065 34.20476525683603 0 0 1
198 1 3 -0.046212 46.97315178905515 57.45421466828927 32.22123551971373 0 0 1
211 1 5 0.0632240003 47.99880720070493 57.66138807326492 31.965968375851237 0 0 1
215 1 3 0.044175 46.57017680936143 60.45180358869932 36.15580078333371 0 0 1
334 1 5 0.06513400010000001 52.12641519045069 59.08881829873449 35.83613197976235 0 0 1
320 1 3 0.0821070002 52.54604457528877 58.295841354898684 33.90717048643393 0 0 1
319 1 14 -0.310465 52.600795189658584 59.60168945867932 33.28513533176384 0 0 1
326 1 3 -0.029358 52.443399429768206 58.215223687272186 35.34564179162451 0 0 1
332 1 5 0.0643810002 53.07647747435853 54.984231103393874 33.38155339411676 0 0 1
322 1 3 -0.037388 52.96181942332899 55.898765742595515 33.9623651049192 0 0 1
321 1 3 -0.029358 52.780955372116445 57.1023368199791 33.22484237360502 0 0 1
331 1 5 0.06513400010000001 53.15107783035191 57.19558119319199 32.18565905988927 0 0 1
324 1 9 -0.2015900002 52.77007215415695 54.627892278727025 36.10643532602634 0 0 1
323 1 3 0.044175 52.778457168518656 55.810534875242176 35.34346864086647 0 0 1
325 1 3 -0.037388 52.455857939970386 56.999466321956135 35.992894302966874 0 0 1
327 1 3 -0.029358 54.11594863642074 60.90878371929742 34.63624842930489 0 0 1
87 1 12 -0.2708210001 52.7988963436524 54.25754221725103 29.823418782803728 0 0 1
318 1 3 0.0821070002 53.65939949055888 60.40154411444983 33.41180216479811 0 0 1
56 1 3 0.046667 50.11207904532311 53.93137468132757 28.602865704031377 0 0 1
88 1 1 0.2576290002 52.341935875121465 55.00850023884892 28.932417800444608 0 0 1
304 1 3 0.053259 59.50824162182644 29.266049868564966 34.605979830637395 0 1 1
305 1 3 -0.017827 60.678604139323625 28.94689064468799 35.34794909219279 0 1 1
2548 6 12 -0.2708210001 58.053493611771486 53.58011564816027 33.16583306900351 0 0 1
315 1 3 0.044175 56.0913992125437 28.76383013385392 33.59751316713284 0 1 1
1778 4 3 0.0821059998 59.81894301883722 28.529753288752364 30.604138312437595 0 1 1
2270 6 5 0.0643380001 58.27102241034537 53.822020148091426 29.672954933044668 0 0 1
302 1 1 0.2576279998 58.3290128464556 61.54407692302841 34.38863907198651 0 0 1
330 1 5 0.06513400010000001 54.188603373657315 60.25086213515439 31.30518038004018 0 0 1
317 1 3 -0.029358 54.40097343288862 60.71541542510889 32.25057723042364 0 0 1
2560 6 3 0.044175 60.46521531797424 53.59175250080896 34.94653934268526 0 0 1
1793 4 5 0.0643380001 29.130691074487913 60.24273387231898 32.571195107211665 1 0 1
1783 4 3 -0.038738 28.5286830726981 60.97110801424351 32.07173653557303 1 0 1
1784 4 3 -0.029401 60.4837565584379 60.66635684014312 31.4050739128622 0 0 1
1794 4 5 0.06513400010000001 60.09223779251373 59.618305998024745 31.46612834362838 0 0 1
312 1 5 0.06592500010000001 60.70674604680681 61.065741259456686 35.749472520940984 0 0 1
101 1 12 -0.270822 60.66751295354436 56.79731664101468 32.347222014148045 0 0 1
98 1 3 -0.046212 59.207213759554065 56.987104053048824 29.585870541022025 0 0 1
329 1 5 0.0643810002 56.13227570199341 61.508062169592876 31.494507448788 0 0 1
316 1 3 -0.037388 55.60656671436067 61.449901731031986 32.372213279841944 0 0 1
112 1 5 0.06592500010000001 55.657623219519024 58.38577814589787 30.440601647214674 0 0 1
103 1 12 -0.2708210001 56.230349466202526 57.50087234499637 33.3324699176363 0 0 1
105 1 3 -0.017827 56.58109223669174 57.84638523917133 30.221159151250507 0 0 1
102 1 1 0.2576279998 57.29740506987804 57.393272786046566 32.71999506112159 0 0 1
104 1 3 0.053259 57.4052105934972 57.356344985491226 31.229790703569215 0 0 1
99 1 3 0.050832 58.735190091556134 57.07150653245093 30.946322038649328 0 0 1
100 1 1 0.2575330002 59.46582331860044 56.94636796436754 32.20663853491425 0 0 1
114 1 9 -0.2015900002 58.48661315101823 57.021417311985005 33.250061134898175 0 0 1
303 1 12 -0.2708210001 58.25046420669415 60.361134561184315 34.76629490993093 0 0 1
136 1 5 0.0643810002 60.59297639686821 57.69565234429687 34.685727648515176 0 0 1
115 1 3 0.044175 58.651796023410995 56.78664531880704 34.650000057217476 0 0 1
129 1 5 0.0643810002 56.73996332458812 55.865054354338625 34.848985147545676 0 0 1
116 1 3 -0.037388 57.65400091841853 56.11918346555476 35.37711273215847 0 0 1
128 1 3 -0.037388 59.823692347788395 57.24749043749489 35.3106056946637 0 0 1
1777 4 14 -0.310465 58.60802678526468 61.28653539349044 30.003451745818353 0 0 1
111 1 5 0.0632240003 60.24350245195513 56.73104555873133 29.331518984108904 0 0 1
113 1 5 0.06592500010000001 54.957026405658084 56.20447851801212 29.338572218639836 0 0 1
2260 6 3 -0.038738 57.73938840503024 53.946807524459466 28.71153635399513 0 0 1
96 1 3 0.08280999980000001 57.00645176471465 57.77163555872883 28.889886818263264 0 0 1
97 1 3 -0.030409 58.27499987325132 57.298165481743204 28.572706389832057 0 0 1
1561 4 9 -0.2015900002 34.14270653438893 29.77910990153442 36.548197332151744 1 1 1
1549 4 1 0.2576279998 34.61990970694996 31.1431577402965 36.44199243717875 1 1 1
1382 4 3 0.08280999980000001 33.29579573255402 37.07729887540323 36.666155826191215 1 1 1
1534 4 12 -0.2708210001 29.935513163616495 34.39296846379559 36.89639286680683 1 1 1
1560 4 5 0.06592500010000001 32.11944590463352 33.53571276424643 38.481879061385186 1 1 1
1535 4 1 0.2576279998 30.065391038136305 35.29774914506026 37.63126879268331 1 1 1
1541 4 3 0.08280999980000001 32.94759673710643 34.969502442595726 39.95534293235932 1 1 1
1553 4 3 -0.017827 32.016275533669535 34.39819600579929 39.03766668238295 1 1 1
1554 4 3 0.053259 31.024733332625015 35.29966454472051 38.7154116663942 1 1 1
2086 5 12 -0.270822 30.76196631637402 31.193296417660765 38.850277346873 1 1 1
2085 5 1 0.2575330002 30.201068403638295 31.124605884002534 39.9255941900281 1 1 1
1557 4 5 0.0650900002 34.03161409561605 32.3686696801449 41.595917553890786 1 1 1
1544 4 3 -0.030409 34.293217119869134 32.12519842813594 40.527008408080235 1 1 1
1546 4 3 0.050832 34.2786637259174 30.60841790347909 38.64723291329851 1 1 1
1545 4 3 -0.046212 34.08254122804498 30.827909250842247 40.00541288119297 1 1 1
1542 4 14 -0.3104160002 34.198133028280424 34.40406277286572 40.05820435704476 1 1 1
1543 4 3 0.08280999980000001 34.53195383129212 33.1717624355358 39.64813230616876 1 1 1
1551 4 3 0.053259 34.667126927989784 31.679388909862066 37.82911665277228 1 1 1
1552 4 3 -0.017827 34.67856201347137 32.96083345347204 38.251655291756904 1 1 1
1559 4 5 0.06592500010000001 34.52723148341278 33.785101842003286 37.58774291046632 1 1 1
2087 5 3 0.050832 30.38254724083816 30.069304105626355 40.9459553335596 1 1 1
845 2 5 0.06543099989999999 36.6174802842267 29.20292889537684 43.458849984582315 1 1 1
831 2 13 -0.3582139999 36.42033848154883 31.376573836562184 44.49358779180224 1 1 1
832 2 3 -0.0261 35.65892248431482 29.304814326557402 43.82391149832235 1 1 1
830 2 3 0.1014749999 35.428887611165685 30.424046976486675 44.55598019093078 1 1 1
825 2 3 -0.043685 34.66133571886846 61.469126007004704 43.5807945178479 1 0 1
1540 4 3 -0.030409 32.673188958092055 36.15451042638964 40.74681318924866 1 1 1
826 2 3 -0.0561990001 33.33948988317309 28.60144693758405 44.04202057069502 1 1 1
2103 5 3 0.053259 29.55220943315503 30.248404986453373 41.97339148020541 1 1 1
2102 5 3 -0.017827 29.48138267432806 29.29075151382963 42.98063205070432 1 1 1
844 2 8 0.218378 37.254461198917795 31.26755972979757 43.90656015591375 1 1 1
2070 5 9 -0.2015900002 29.165722250154133 31.94847218689578 40.441308795662295 1 1 1
1558 4 5 0.0632240003 33.66349374273154 30.04234601240958 40.59786631309448 1 1 1
1547 4 1 0.2575330002 33.99536069116484 29.41989237699536 37.85208256492579 1 1 1
827 2 3 -0.029102 33.115099121150365 29.733720534367635 44.78004288356004 1 1 1
1390 4 3 0.053259 35.49865287411082 36.39528964026767 37.32530348420768 1 1 1
1556 4 5 0.0650900002 33.447181875128386 36.49232723696811 41.37588838673336 1 1 1
828 2 3 0.101217 34.140744939599 30.648252901874734 45.08534603757103 1 1 1
2084 5 1 0.2576279998 28.73641082664143 31.487621369625156 41.72607143528643 1 1 1
2109 5 5 0.06592500010000001 28.92867029707566 29.537602123064897 43.87894579126035 1 1 1
843 2 8 0.218378 34.6604355483672 32.31952739889346 45.71274452200055 1 1 1
842 2 5 0.0651460002 32.06634094669031 29.94235432801416 45.11568608638167 1 1 1
2021 5 3 -0.037388 44.54280840843689 29.901134186344187 35.47644626903556 0 1 1
1388 4 1 0.2576290002 36.8537500989694 35.73862279814661 37.34255283945952 1 1 1
2329 6 8 0.218378 37.448560488440755 31.196468892246774 41.630818764233396 1 1 1
2316 6 13 -0.3582139999 37.67796494488189 30.255567562802632 41.29931355660049 1 1 1
1437 4 12 -0.270822 42.106777044102394 32.854526299539714 36.66903610416017 1 1 1
1404 4 9 -0.2014969998 41.93588580476901 35.1554762560807 36.92713780552725 1 1 1
1402 4 3 -0.017728 39.74071156041155 35.5062325858204 37.73870590757547 1 1 1
2022 5 3 -0.029358 43.484994056252 29.807141717204104 36.41452057540585 0 1 1
1403 4 3 0.046667 41.03659250452552 35.21837309082579 37.99521923735962 1 1 1
1420 4 3 -0.027289 39.29992063538676 35.73776068161622 40.08387030088741 1 1 1
1406 4 3 0.040792 40.594311570361185 35.278801022971564 40.38009517119325 1 1 1
1405 4 3 -0.027289 41.47831814508625 35.1563889715242 39.290780307170536 1 1 1
1407 4 1 0.2430250001 41.034623637521946 35.195238511970246 41.80437004791838 1 1 1
2311 6 3 -0.0561990001 38.20002521829572 30.348647564211383 37.19446086447968 1 1 1
2310 6 3 -0.043685 38.11112965660648 29.13555387718794 37.92941316721607 1 1 1
2312 6 3 -0.029102 37.97446955502984 31.512906774491515 37.85086646654737 1 1 1
1408 4 12 -0.271952 42.04047936657753 34.54243727528257 42.17927653507211 1 1 1
1422 4 5 0.0651200002 42.53979486685175 34.91775379004493 39.4992074188647 1 1 1
1997 5 12 -0.270822 39.774950135876296 32.10481762224152 42.68034433537005 0 1 1
2014 5 3 0.0821070002 41.45550085046535 29.641045446114305 38.286091500410194 0 1 1
2026 5 5 0.06513400010000001 40.46117499296868 31.506694751604446 37.861094007660924 0 1 1
2013 5 3 -0.029358 40.975493848734224 30.907788007946515 38.6089426660932 0 1 1
2011 5 3 0.044175 41.68048641915598 30.50256300119972 40.997742523609816 0 1 1
2012 5 3 -0.037388 41.063839184203644 31.35208151366964 39.99859802874431 0 1 1
2025 5 5 0.0643810002 40.649235704361615 32.32179516870742 40.221652252377744 0 1 1
2010 5 9 -0.2015900002 41.73281749760613 30.83894170878232 42.39878484284922 0 1 1
1996 5 1 0.2575330002 40.833359236050484 31.646835391862446 43.07498926747195 0 1 1
1998 5 1 0.2576279998 42.96461246121781 30.862939400806983 43.06288598020365 0 1 1
2024 5 3 -0.037388 42.06811636946367 29.175178683930657 40.63206672190107 0 1 1
2313 6 3 0.101217 37.89187857445087 31.510074662151585 39.22919547346734 1 1 1
1427 4 6 0.033214 42.48877471532323 35.4325143394336 44.30770752095186 1 1 1
2314 6 13 -0.358222 37.816101372642564 32.684722984802406 39.93121217314899 1 1 1
2328 6 8 0.218378 38.3094955571682 33.31521423670995 39.34546644583989 1 1 1
1999 5 12 -0.2708210001 43.98963113532959 30.33594012753621 42.7208385906766 0 1 1
2317 6 3 -0.0261 37.97491191096696 29.09752747775566 39.3051442555283 1 1 1
2315 6 3 0.1014749999 37.75315778641503 30.30157458531485 39.95643859644129 1 1 1
1424 4 4 0.047031 39.96668075000803 34.93037713601566 44.42198171223371 1 1 1
2016 5 3 0.0821070002 42.250941627355424 29.2895825452438 35.983359762063934 0 1 1
2032 5 5 0.0643810002 42.537404295652024 28.554231463644946 41.378725641874965 0 1 1
2030 5 5 0.06513400010000001 43.67891978963974 30.066259326135757 37.4637813675253 0 1 1
1401 4 3 0.046667 38.85708226697747 35.82304782806204 38.757531142900135 1 1 1
1400 4 9 -0.2014969998 37.52683937799979 36.20872429907355 38.42547773817459 1 1 1
1433 4 5 0.0651200002 38.59496188695071 35.96560801458505 40.875918750204185 1 1 1
1409 4 10 -0.3110300001 40.43619813299057 36.02973905768735 42.71119139481324 1 1 1
1410 4 2 0.015325 40.40292619644705 35.89279935005049 44.18992951394974 1 1 1
2330 6 5 0.06543099989999999 37.92408001070487 61.27894355697859 39.88067612633578 1 0 1
2235 5 3 -0.037388 46.45557388094493 33.97426119909535 36.74762175180801 0 1 1
2222 5 3 0.044175 47.06584258818748 35.11566183398622 36.13547042196437 0 1 1
235 1 5 0.06513400010000001 48.68323398771416 29.960996669446057 37.08913345246751 0 1 1
227 1 3 -0.029358 47.92951546751264 29.20269041662115 37.15404435742863 0 1 1
2243 5 5 0.06513400010000001 45.03149757233583 35.1588435143266 42.74196047064818 0 1 1
1938 5 3 -0.046212 52.98270390078727 34.09027216599311 36.70815358996568 0 1 1
2029 5 5 0.0643810002 45.53761051178384 30.209263412949724 35.71146593644772 0 1 1
2226 5 14 -0.310465 45.57674679820802 35.15610427760827 40.12685265569106 0 1 1
2244 5 5 0.06513400010000001 45.35315198206919 33.19351879420333 38.37741952876018 0 1 1
2233 5 3 -0.029401 45.704289309356525 34.36057054195581 42.38441305527892 0 1 1
2234 5 3 -0.029358 45.91062477829044 34.04248580903305 38.01228064932446 0 1 1
1954 5 5 0.0632240003 52.891922854547175 32.99380952467597 36.76662996284577 0 1 1
2225 5 3 0.0821070002 45.933367461179955 35.22161077772095 38.80545383510105 0 1 1
1816 5 5 0.06513400010000001 51.5182179528243 30.614947983577135 37.24102419369564 0 1 1
2232 5 3 -0.038738 46.23939858846323 33.467244983778706 43.30631915673553 0 1 1
2227 5 3 0.0821059998 46.04556013507209 34.231340149052144 41.040573458604285 0 1 1
2238 5 5 0.06513400010000001 47.36000037833085 33.13092227643399 39.65258056017128 0 1 1
2228 5 3 -0.029401 47.02002383369147 33.2336739622394 40.67406735032419 0 1 1
1817 5 5 0.0643810002 50.49199230015939 32.23605983536432 38.55730277631656 0 1 1
2229 5 3 -0.038738 47.536683767401016 32.36569156224229 41.64411517459768 0 1 1
234 1 5 0.06513400010000001 45.90513715680223 29.298481646453023 41.33994517681776 0 1 1
2239 5 5 0.0643380001 48.37574206439786 31.639098028865497 41.43043891236855 0 1 1
2230 5 3 0.023437 47.12960828676236 32.44569083834164 42.94516519768183 0 1 1
2231 5 11 -0.3582950001 47.80415075511095 31.721490936053637 43.89488433367721 0 1 1
226 1 3 -0.029358 46.898673695216885 29.08537855509104 41.63982680307844 0 1 1
225 1 3 -0.037388 47.24162223204662 28.56277894919319 42.93743055979895 0 1 1
1804 5 3 -0.029358 51.851365038773494 30.63730733180129 38.27147102888157 0 1 1
1805 5 3 -0.037388 51.3100043086349 31.6901418933295 39.030614299732704 0 1 1
1825 5 12 -0.270822 50.97278029533534 34.75559862759602 39.650318942057176 0 1 1
1826 5 3 0.050832 50.01738101309774 34.822020972382234 42.0388804179458 0 1 1
1806 5 3 0.044175 51.76386722077433 31.987924494729498 40.342339202972376 0 1 1
1808 5 3 -0.037388 52.86867582170538 31.25101157398807 40.84206658923249 0 1 1
1824 5 1 0.2575330002 50.72754146126759 34.244005515880836 40.791780152328535 0 1 1
1807 5 9 -0.2015900002 51.15495353870439 32.9386527360032 41.174070160266055 0 1 1
1823 5 1 0.2576279998 50.91990865009503 32.70787086557645 42.553787272222046 0 1 1
1822 5 12 -0.2708210001 51.04566701170215 31.65517926036382 43.13742703467634 0 1 1
1842 5 3 0.053259 50.25808095246539 33.94261088380272 43.050685451991704 0 1 1
1818 5 5 0.0643810002 53.27371776560558 31.60577109212558 41.77696231915349 0 1 1
1827 5 3 -0.046212 49.408280255373455 36.08058474272121 42.156025374951724 0 1 1
1803 5 3 0.0821070002 52.90274313958753 29.845914602832842 38.82149994392863 0 1 1
223 1 3 0.044175 48.55179637746933 28.476099237260044 43.394435567504914 0 1 1
221 1 3 -0.029358 49.239302371714416 29.08445615901461 41.161589135445894 0 1 1
2241 5 7 0.1426590002 48.688600819779865 31.259719503196113 43.67331514481647 0 1 1
1809 5 3 -0.029358 53.3534425552579 30.14573679581165 40.12089914438072 0 1 1
1841 5 3 -0.017827 49.84484919741625 34.25210001620495 44.37683671015167 0 1 1
219 1 14 -0.310465 47.64277847648565 29.771602679315713 39.46139847739657 0 1 1
220 1 3 0.0821070002 47.92904570270868 29.28036288685034 40.74061914250656 0 1 1
222 1 3 -0.037388 49.52506095525435 28.69467706814806 42.47273307532022 0 1 1
231 1 5 0.06513400010000001 50.04458241900458 28.86733876060713 40.37758644519427 0 1 1
232 1 5 0.0643810002 50.59340096560389 28.492575836104976 42.75383549723454 0 1 1
218 1 3 0.0821070002 47.282998580516306 28.973453525818535 38.426693556550454 0 1 1
1802 5 14 -0.310465 53.44366318833896 28.817897164490653 38.019335106006785 0 1 1
1828 5 3 -0.030409 49.04523859769924 36.408129548390015 43.46153785174258 0 1 1
2153 5 3 0.053259 52.54802705942269 36.614372528940876 44.659602990870184 0 1 1
224 1 9 -0.2015900002 48.83179025731984 61.196133170811606 44.72138740775809 0 0 1
2137 5 3 0.050832 52.95865691910009 35.69948619801678 43.71227888935137 0 1 1
2135 5 1 0.2575330002 53.084205994241366 34.38619964805085 44.47846407715473 0 1 1
2138 5 3 -0.046212 53.22402531924071 35.89995591170699 42.39499864262475 0 1 1
2073 5 3 -0.029358 57.318039021524456 33.44786750317933 36.66507543757954 0 1 1
2154 5 5 0.0632240003 53.541077100744836 35.0999275196341 41.65142964952923 0 1 1
2136 5 12 -0.270822 53.50865173930329 33.33467081955703 44.05207494658313 0 1 1
1819 5 5 0.06513400010000001 54.159198166757946 29.556248396141957 40.56951836307356 0 1 1
2069 5 3 0.044175 61.49114771558774 32.82801376992705 39.60344593620313 0 1 1
2079 5 5 0.0643810002 60.92373298048793 34.21797436647963 41.11531324168108 0 1 1
1926 5 5 0.06513400010000001 61.37403530204591 34.22121040446867 44.46026421569496 0 1 1
19 1 5 0.06513400010000001 54.03148557701843 30.23462376365283 43.6517204918446 0 1 1
2078 5 5 0.0643810002 28.452345945658326 31.630868731417085 37.73460668410839 1 1 1
2068 5 3 -0.037388 61.155632271279245 32.5101028137331 38.22219503902174 0 1 1
2083 5 12 -0.2708210001 60.90285380383561 31.81910500313961 42.41434625557789 0 1 1
2071 5 3 -0.037388 60.833198206859095 34.005891177166866 40.09758407370548 0 1 1
1937 5 3 0.050832 53.79440860604326 34.749993803482226 37.55963008442233 0 1 1
1936 5 12 -0.270822 54.82431008048799 33.03840152142424 38.93853322225044 0 1 1
1820 5 5 0.06513400010000001 55.55147240810253 30.242730011847126 38.634897773054576 0 1 1
1935 5 1 0.2575330002 54.7088559729738 34.20920232312124 38.62669434980904 0 1 1
1920 5 9 -0.2015900002 55.38212026566897 35.3448906589208 39.09914943694882 0 1 1
2067 5 3 -0.029358 60.30001473542478 33.32173161467736 37.44416140310004 0 1 1
2072 5 3 -0.029358 60.02783091057604 34.80476751644021 39.27995428808464 0 1 1
2081 5 5 0.06513400010000001 57.8097603093662 32.77075679877862 37.35699285586378 0 1 1
2065 5 14 -0.310465 58.65893195206823 35.317349320139684 37.32908148103995 0 1 1
2066 5 3 0.0821070002 59.690055961391494 34.53024932923206 37.97978778337426 0 1 1
1928 5 5 0.0643810002 57.242423857596165 33.24715132819471 39.59730382146511 0 1 1
1918 5 3 -0.037388 57.26464125526461 34.09205215571642 40.372708900587874 0 1 1
1927 5 5 0.06513400010000001 58.72404989646519 33.19678047911467 41.5495296139927 0 1 1
1919 5 3 0.044175 56.361685949412234 35.245467161586376 40.19418225876504 0 1 1
1917 5 3 -0.029358 58.166076304338375 34.04935372735241 41.39201407056855 0 1 1
1916 5 3 0.0821070002 58.31819047351509 35.095237683893465 42.26893864939349 0 1 1
1821 5 5 0.0643380001 57.94952198834697 29.3821220090808 38.892038334089946 0 1 1
1810 5 3 -0.029401 55.80296306800915 29.1840679564531 38.52164002591488 0 1 1
1811 5 3 -0.038738 57.145380835205245 28.66906422183446 38.5914359223907 0 1 1
1 1 11 -0.3582950001 58.23974989081823 30.749679642056773 42.09287621028444 0 1 1
2080 5 5 0.06513400010000001 59.49704993363112 35.61822428821861 39.75914029716252 0 1 1
17 1 7 0.1426590002 58.447845038186514 31.48230335327078 42.74282761135308 0 1 1
4 1 3 -0.029401 54.89507527262646 29.735659066536773 43.25023983273044 0 1 1
2 1 3 0.023437 57.12732603586619 29.960256358321207 42.38077955370302 0 1 1
3 1 3 -0.038738 55.983675661504336 30.52879761519811 42.99381959228316 0 1 1
1915 5 14 -0.310465 59.240049066968155 35.036420266826894 43.24723917868748 0 1 1
18 1 5 0.0643380001 55.95008247691386 31.62124376874059 43.24994663020834 0 1 1
1914 5 3 0.0821070002 59.240495868841336 34.159556499362225 44.30943608248643 0 1 1
1931 5 5 0.06513400010000001 57.093847854163414 33.94074487817558 44.294096130527514 0 1 1
16 1 7 0.1426590002 58.78085175524628 30.664595565638358 41.25719832766456 0 1 1
1801 5 3 0.0821059998 54.74622693745128 61.43608831346366 38.1348855167704 0 0 1
1923 5 3 -0.029358 58.02050019415471 33.5760722588076 44.67577749788282 0 1 1
2139 5 3 -0.030409 52.92941172654716 37.18012782945272 41.914692561554986 0 1 1
1953 5 3 0.053259 53.88859026589921 36.07562701425154 37.475065762812946 0 1 1
1922 5 3 -0.029358 57.541435567574084 36.25117461303819 42.12771050674642 0 1 1
1921 5 3 -0.037388 56.50023427165524 36.28215743754595 41.13116998420051 0 1 1
1934 5 1 0.2576279998 54.8727213432701 36.493527508878216 38.50410708221595 0 1 1
1930 5 5 0.06513400010000001 57.49531717665657 37.07120201256658 42.84389648178229 0 1 1
1538 4 3 0.050832 30.85840993115914 36.558886760436835 39.322788371862174 1 1 1
1521 4 9 -0.2015900002 29.332621350090278 36.433964351506404 37.62382616489828 1 1 1
1539 4 3 -0.046212 31.545349737344967 36.93507880719371 40.47767169438525 1 1 1
1536 4 1 0.2575330002 29.771860463065263 37.27103081488185 38.62228647248201 1 1 1
1280 3 13 -0.3582139999 28.691923288591926 37.487274972923046 41.923881169372464 1 1 0
1293 3 8 0.218378 61.35599224124529 37.62295249448464 41.07540572013087 0 1 0
2192 5 5 0.06543099989999999 31.578358425230043 41.51996637980149 36.93766216754915 1 1 1
1385 4 3 0.050832 35.408031706601065 37.17102886910632 38.432170495037845 1 1 1
2178 5 13 -0.3582139999 34.14637227407951 41.15772320255721 37.154891331271855 1 1 1
2191 5 8 0.218378 33.670738125803126 41.66162120318279 37.818072320915405 1 1 1
1555 4 5 0.0632240003 31.521563970816068 37.87367530510069 41.028515251990974 1 1 1
1396 4 5 0.0650900002 32.26484084446249 38.46908451617435 38.04337251337938 1 1 1
1537 4 12 -0.270822 29.38140998474826 38.41027617999958 38.862470128133005 1 1 1
1383 4 3 -0.030409 33.178270286858336 37.90926739570265 37.81180294257384 1 1 1
1384 4 3 -0.046212 34.30926840593972 37.98524306686383 38.69748158872405 1 1 1
1397 4 5 0.0632240003 34.25106917111731 38.539576637882405 39.60862165023863 1 1 1
789 2 12 -0.270822 32.15042786592018 41.919128013845736 39.446308141668126 1 0 1
788 2 1 0.2575330002 31.883513890337724 43.04410200741388 39.11519832388208 1 0 1
807 2 5 0.0632240003 34.80127442029024 43.26981705634765 39.15528176886853 1 0 1
772 2 3 0.044175 29.385681464997237 43.10881536735891 39.67538754121071 1 0 1
773 2 9 -0.2015900002 30.611468845308067 43.687672803089065 39.1024760299214 1 0 1
1145 3 3 -0.030409 35.18590017183618 38.60943464394265 43.06807596480986 1 1 0
1144 3 3 0.08280999980000001 35.13202530000304 39.92053601566682 42.52361251691467 1 1 0
1153 3 3 -0.017827 34.00464140656324 40.75918793646398 42.70399794634915 1 1 0
1160 3 5 0.06592500010000001 33.996051537404874 41.81077668570489 42.386969875858895 1 1 0
771 2 3 -0.037388 29.425213006929727 42.41266813598807 40.862846964947856 1 0 1
1146 3 3 -0.046212 34.12824904202152 38.064407102706475 43.866245614096734 1 1 0
1152 3 3 0.053259 32.98079928317335 40.24930042128891 43.53828527693824 1 1 0
781 2 5 0.0643810002 30.353102549243676 42.301718512107655 41.3197924950545 1 0 1
1177 3 5 0.0643810002 29.065943349902604 41.37530520174324 44.60240368953315 1 1 0
791 2 3 -0.046212 34.24697304832007 44.11126227562727 38.82573003442978 1 0 1
790 2 3 0.050832 32.84566168457901 44.12302144863043 38.733219163720435 1 0 1
1147 3 3 0.050832 33.10998986121683 38.96427968034851 44.123998750174955 1 1 0
1158 3 5 0.0650900002 36.097369802304044 38.01708641284312 42.942885038713904 1 1 0
1159 3 5 0.0632240003 34.0799649094104 37.07507974374968 44.35040415632929 1 1 0
1143 3 14 -0.3104160002 36.27409871698184 40.52423245304099 42.025119530880886 1 1 0
1161 3 5 0.06592500010000001 36.09074400245988 42.76932441369533 43.53798785972033 1 1 0
1151 3 12 -0.2708210001 31.389843380697297 42.02593832786311 43.67152621725279 1 1 0
1150 3 1 0.2576279998 31.841039206310963 40.97264767565484 44.12560441483764 1 1 0
1142 3 3 0.08280999980000001 37.160736369670005 40.87043535186743 43.044903424876736 1 1 0
1154 3 3 -0.017827 36.93987697259544 42.120377944592086 43.73806370044652 1 1 0
2641 6 5 0.06543099989999999 29.70470480103495 44.24043993974311 44.398773100236355 1 0 0
922 3 5 0.06513400010000001 33.96153927413289 44.01317933924944 44.503279952864666 1 1 0
646 2 3 -0.030409 38.43721737781144 40.06367750626746 37.578929923726086 1 0 1
645 2 3 0.08280999980000001 37.83252392302276 41.289549661597164 37.23628799851575 1 0 1
661 2 5 0.06592500010000001 37.49152032494068 43.34426382413875 37.81918836567381 1 0 1
1434 4 12 -0.2708210001 42.35091719422815 37.39528568288081 36.60759409478308 1 1 1
1411 4 2 -0.012104 41.737128768373424 36.04439269396387 44.80271102145748 1 1 1
1428 4 5 0.062665 42.48995174064986 37.98412342844268 42.857311224117794 1 1 1
1386 4 1 0.257535 36.70855220655545 37.032672471212855 39.159906039517395 1 1 1
1387 4 12 -0.270822 37.03917892473776 37.719239057655486 40.124013964444444 1 1 1
1423 4 7 0.1496919999 39.78893603985552 36.68601013988807 42.37010273460452 1 1 1
1425 4 4 0.047031 39.7404432582351 36.691600514813516 44.49570198351054 1 1 1
1413 4 3 -0.0561990001 42.47153886297708 38.417875408719695 43.86364060930014 1 1 1
1412 4 3 -0.043685 42.11718516213673 37.51439141892381 44.95196060258537 1 1 1
660 2 5 0.0632240003 39.77972571368613 39.042753017159384 38.838281871473754 1 0 1
647 2 3 -0.046212 39.272579821176244 40.011835105950254 38.717334347997756 1 0 1
650 2 12 -0.270822 40.71958385428202 40.45982475088575 41.43238247726985 1 0 1
654 2 3 -0.017827 37.91684397343513 42.38147197541047 38.10976942607448 1 0 1
653 2 3 0.053259 38.617550006048816 42.26181764139747 39.3005224932526 1 0 1
651 2 1 0.2576279998 38.731748788660596 43.28049311460528 40.451952902094014 1 0 1
648 2 3 0.050832 39.34128876466955 41.130839861578785 39.59701807984917 1 0 1
663 2 9 -0.2015900002 39.696934211648035 42.634934963874244 41.299117597067934 1 0 1
649 2 1 0.2575330002 40.07679377355272 41.32102614650563 40.86549222611643 1 0 1
1414 4 3 -0.029102 42.7234017105868 39.75803663671118 44.10115472265972 1 1 1
1429 4 5 0.0651460002 42.836526928633404 40.42834819793513 43.19215470584238 1 1 1
1157 3 5 0.0650900002 38.320739118374746 39.00859907135826 43.06034900474663 1 1 0
664 2 3 0.044175 40.32427375110085 43.418726387980286 42.35527828768926 1 0 1
665 2 3 -0.037388 41.59170169533104 43.01107574384605 42.859707051312384 1 0 1
678 2 5 0.0643810002 42.181395633928545 42.29351250865858 42.30101202478801 1 0 1
666 2 3 -0.029358 42.202331082306145 43.71739841666981 43.890541663096684 1 0 1
1415 4 3 0.101217 42.84131619501049 40.258865585644415 45.439760337602706 1 1 1
679 2 5 0.06513400010000001 43.19584251846528 43.39872878925297 44.25151544699857 1 0 1
1417 4 3 0.1014749999 42.602745137023945 39.33851889967437 46.488639957287084 1 1 1
1419 4 3 -0.0261 42.155560082575285 38.025826103586084 46.26852688280028 1 1 1
1418 4 13 -0.3582139999 42.76959112940803 39.748580229826956 47.77947493983986 1 1 1
1141 3 3 -0.030409 38.1883229716218 39.98610061110989 43.4885458598074 1 1 0
1140 3 3 -0.046212 39.017842299051054 40.357710725388856 44.536802685003934 1 1 0
1156 3 5 0.0632240003 39.767486016252974 39.63461257659775 44.9488626728431 1 1 0
677 2 3 -0.037388 39.620765847477216 44.43575692327765 43.100448935294786 1 0 1
652 2 12 -0.2708210001 38.257028320787136 44.419989150676145 40.57390228671376 1 0 1
894 2 7 0.1426590002 44.21202466869373 43.492651216347674 40.593195972180595 1 0 1
884 2 11 -0.3582950001 44.776376450179214 43.27464193716657 41.443239025614595 1 0 1
1139 3 3 0.050832 38.83108725544058 41.52713168818847 45.209677635714925 1 1 0
1155 3 3 0.053259 37.81483041007538 42.41721477762466 44.818332394027664 1 1 0
1416 4 13 -0.358222 43.29004470663349 41.53252791556406 45.666120429731436 1 1 1
1430 4 8 0.218378 43.22803553945327 42.052913285060924 44.84912186606091 1 1 1
2224 5 3 -0.029358 46.55469447984795 36.33839681975109 38.2090285774508 0 1 1
893 2 7 0.1426590002 44.9007929834846 42.31540979619241 41.69541203893549 1 0 1
885 2 3 -0.038738 45.507091932060945 44.21067086487642 43.496393000732326 1 0 1
2223 5 3 -0.037388 47.0155891559194 36.26890348798821 36.90926780948956 0 1 1
2237 5 5 0.06513400010000001 46.721681644617036 37.2142074869755 38.81496988162515 0 1 1
1951 5 3 -0.017827 50.13580357564731 38.03142442364896 36.673106225908036 0 1 1
1945 5 3 0.050832 50.15289532279525 40.47874529841585 36.712938263107446 0 1 1
2236 5 5 0.0643810002 47.546609411889406 37.150245025615135 36.56704912151977 0 1 1
895 2 5 0.0643380001 45.463445899608885 43.24981516463134 43.98111291439032 1 0 1
1843 5 5 0.0632240003 49.228230952379725 36.75899031769517 41.329109969053775 0 1 1
1958 5 5 0.06592500010000001 50.059179573799824 37.054890088762264 37.155904262277524 0 1 1
1950 5 3 0.053259 49.86799036790689 39.27292457381945 37.2596091852501 0 1 1
1947 5 12 -0.270822 49.95586084838209 42.73845632521056 37.58268002275256 0 1 1
1946 5 1 0.2575330002 49.82242366528848 41.53657345423835 37.76129856403106 0 1 1
1960 5 9 -0.2015900002 49.40048241086438 40.8892203804821 38.91254136671422 0 1 1
1948 5 1 0.2576279998 49.34361885172838 39.48124961538116 38.68697029191843 0 1 1
1981 5 5 0.06513400010000001 46.73273702352962 41.21202908184615 42.563774962820084 0 1 1
1973 5 3 -0.029358 47.664056489539014 41.54617972392202 42.087502986802185 0 1 1
1982 5 5 0.0643810002 47.14702609962641 40.55083166737181 40.22601704115242 0 1 1
1974 5 3 -0.037388 47.90237309255997 41.11347346849444 40.78600111344707 0 1 1
1964 5 3 0.0821070002 48.568837970270515 42.44864620500285 42.72290488860604 0 1 1
1963 5 3 -0.029358 49.70353458894432 42.900567662362434 42.10400026787836 0 1 1
1961 5 3 0.044175 49.03716993808548 41.5183703617561 40.1382059089008 0 1 1
1976 5 5 0.06513400010000001 50.28105336767843 43.5935458620644 42.61609811735882 0 1 1
1949 5 12 -0.2708210001 49.017509399535925 38.59519481829299 39.43117161429644 0 1 1
1975 5 5 0.0643810002 50.82103391721748 42.698282024408726 40.13189143279645 0 1 1
1962 5 3 -0.037388 49.935369055543404 42.46723827202561 40.74011915640905 0 1 1
2152 5 3 -0.017827 52.31821780083675 37.960718875825066 44.238726622556015 0 1 1
2140 5 3 0.08280999980000001 52.399960273587716 38.159021699193005 42.84050038183338 0 1 1
2141 5 14 -0.3104160002 52.295276704355636 39.47036568650288 42.415851494694465 0 1 1
2158 5 5 0.06592500010000001 52.21211948327458 40.2604338715007 39.84781041304793 0 1 1
1844 5 5 0.0650900002 48.538276484273645 37.31574800804183 43.63194646658408 0 1 1
364 1 9 -0.2014969998 53.077596857518394 45.071912289121556 42.64848653588555 0 0 1
1965 5 14 -0.310465 48.46663106605174 42.6810896299956 44.08242807273289 0 1 1
1977 5 5 0.06513400010000001 49.62502571019793 40.42504329791419 44.368444569642406 0 1 1
2159 5 5 0.06592500010000001 52.041771160183195 38.764125827169906 44.95149880240915 0 1 1
1980 5 5 0.06513400010000001 46.31978191545476 42.81448610840877 45.84623709300534 0 1 1
1528 4 5 0.06513400010000001 58.64746195535099 38.802269681252824 36.51982725287121 0 1 1
1520 4 3 0.044175 61.359980146019225 36.87802443713002 36.717689719915754 0 1 1
770 2 3 -0.029358 61.36490575943655 41.99658381276816 41.5322083669291 0 0 1
1279 3 3 0.1014749999 61.09492281855226 37.93765825189366 42.98620564636505 0 1 0
1278 3 13 -0.358222 59.58092570481023 39.08362098434214 41.42428174846931 0 1 0
780 2 5 0.06513400010000001 61.43878197947113 41.55779070660894 42.47892081395408 0 0 1
774 2 3 -0.037388 61.2181189787167 43.30179059295166 39.06696177843754 0 0 1
782 2 5 0.0643810002 61.1871206754313 43.78474317361761 38.03454720852575 0 0 1
361 1 5 0.0632240003 52.679033324457265 44.84160630449527 38.58431982682711 0 0 1
2155 5 5 0.0650900002 53.02466155732964 37.4074589750287 40.86077368989187 0 1 1
2193 5 5 0.0651200002 58.26531358704037 41.77213241901391 37.2461809332244 0 1 1
1277 3 3 0.101217 59.93213304845051 38.675000837406444 42.707773324097644 0 1 0
1519 4 3 -0.037388 60.352198165537125 37.6979433958915 37.083628378348855 0 1 1
1292 3 8 0.218378 58.96472310543743 39.919550209137185 41.52387018452693 0 1 0
1929 5 5 0.0643810002 55.81907477265794 37.1593101645927 41.10990985895519 0 1 1
1291 3 5 0.0651460002 58.1440020283824 39.64233935843507 43.50238779890016 0 1 0
1276 3 3 -0.029102 59.071690304076654 39.107083511483964 43.78660797313522 0 1 0
2151 5 3 -0.017827 53.168870405313356 40.30983969205377 40.354411539151585 0 1 1
2142 5 3 0.08280999980000001 53.3494795742438 39.95615874221878 41.68295818535291 0 1 1
2149 5 12 -0.2708210001 53.470234373049486 41.435606540483384 37.53672650038351 0 1 1
1933 5 12 -0.2708210001 55.2052030802966 37.63906159841916 38.6367783596394 0 1 1
2150 5 3 0.053259 54.305224997783554 40.70395556919915 39.63953551211981 0 1 1
2143 5 3 -0.030409 54.61487775859529 39.80398108653071 42.21322093172263 0 1 1
2156 5 5 0.0650900002 54.68751025370391 39.45196980490675 43.23634229244895 0 1 1
2148 5 1 0.2576290002 54.415160312854745 41.073316249657815 38.248934820327015 0 1 1
2144 5 3 -0.046212 55.78400373270347 40.00550647498599 41.47358079540427 0 1 1
2145 5 3 0.050832 55.56489737733531 40.49225979233889 40.18879936446264 0 1 1
1529 4 5 0.0643810002 60.08449573851556 37.81474787453721 38.13766601642814 0 1 1
2160 5 9 -0.2014969998 55.74352342611777 40.97156795331907 37.94295234443344 0 1 1
2147 5 12 -0.270822 57.683449829754196 40.53835694730888 39.068608704530256 0 1 1
2146 5 1 0.257535 56.49537759865317 40.67822014067379 39.002582111956144 0 1 1
2157 5 5 0.0632240003 56.728363677868714 39.670733182208195 41.75856651605476 0 1 1
783 2 5 0.06513400010000001 59.09783596670488 43.0191417681233 39.236670098346934 0 0 1
775 2 3 -0.029358 60.0452039679343 42.792922830737105 39.66876105454809 0 0 1
769 2 3 0.0821070002 60.087559829427875 42.2028326551665 40.95407424675993 0 0 1
351 1 12 -0.270822 52.99861218553441 43.4052206249669 41.113666721487796 0 0 1
768 2 14 -0.310465 58.944958760797945 42.137341703755105 41.712960788950305 0 0 1
397 1 5 0.0651200002 55.04937749127963 43.54930771655248 43.295043198695325 0 0 1
767 2 3 0.0821070002 58.59555873182114 43.23360779795574 42.4342601710572 0 0 1
776 2 3 -0.029358 59.33694911494223 43.415560467809925 43.57796431300612 0 0 1
384 1 3 -0.027289 54.30221636039766 43.50152887535525 44.12148892107042 0 0 1
779 2 5 0.06513400010000001 56.89347787652787 43.79976386511139 41.153104201173264 0 0 1
766 2 3 -0.029358 57.54446353920287 44.12121869697107 42.03189019905908 0 0 1
561 2 5 0.06592500010000001 58.466103616154314 44.67802660401666 37.76997441536017 0 0 1
350 1 1 0.257535 53.04416065495098 44.573878859340915 41.35602694567471 0 0 1
365 1 3 0.046667 53.19358096586157 44.30737358314741 43.89882092646681 0 0 1
784 2 5 0.06513400010000001 60.14463661216135 42.73885926679437 43.927268750082206 0 0 1
777 2 3 -0.037388 59.03810230123979 44.58115541751346 44.33626358162134 0 0 1
372 1 12 -0.271952 56.90956199444646 42.20822847987237 44.74293187753352 0 0 1
787 2 1 0.2576279998 30.69037417941575 44.96016367425415 38.59132703038895 1 0 1
2628 6 3 -0.0261 29.773951208465668 45.29070502370709 44.80915867366437 1 0 0
923 3 5 0.0643380001 35.09332596900588 44.64369072442412 42.49422270205942 1 1 0
806 2 3 0.053259 32.116871757464985 45.223108867519336 38.477384788662924 1 0 1
786 2 12 -0.2708210001 29.768903974197812 45.750697979032765 38.50887530447494 1 0 1
793 2 3 0.08280999980000001 34.173120628046185 46.50552444138208 38.32074106649618 1 0 1
792 2 3 -0.030409 34.88123741469087 45.298615905657456 38.532496959283094 1 0 1
805 2 3 -0.017827 32.77880229691227 46.454398740399384 38.17033382456565 1 0 1
808 2 5 0.0650900002 35.930731617746815 45.500087248661266 38.56000893323752 1 0 1
812 2 5 0.06592500010000001 32.25436824635902 47.36167551979966 37.77455033569381 1 0 1
2341 6 3 0.08280999980000001 29.65880889464484 49.883602462129524 36.66521460690888 1 0 1
2340 6 14 -0.3104160002 30.839669113789647 50.09290436724326 37.29561832446353 1 0 1
2339 6 3 0.08280999980000001 31.518606101386656 51.294699666546215 37.253145401355525 1 0 1
809 2 5 0.0650900002 32.762688382112664 48.51700851136499 39.6065976327237 1 0 1
796 2 3 -0.030409 33.49554209292659 49.229334655164976 39.28421009763606 1 0 1
797 2 3 -0.046212 33.360021327567786 50.50098755252313 39.87668997738554 1 0 1
794 2 14 -0.3104160002 34.87699890582963 47.70336264051912 38.041088004597924 1 0 1
795 2 3 0.08280999980000001 34.6094009855191 48.91530471351938 38.54939213954691 1 0 1
798 2 3 0.050832 34.27180442446755 51.50211517107803 39.47036666518884 1 0 1
803 2 3 0.053259 35.333929523407456 51.19981507747695 38.62765831105626 1 0 1
804 2 3 -0.017827 35.51940379369575 49.933310524101486 38.23189988970041 1 0 1
811 2 5 0.06592500010000001 36.37569360533561 49.768489782670315 37.63509666102753 1 0 1
810 2 5 0.0632240003 32.5121952105884 50.780309463923516 40.49947175721359 1 0 1
914 3 7 0.1426590002 35.483533447734665 46.19673228815405 41.07240173844347 1 1 0
899 3 11 -0.3582950001 34.89443086426395 46.93971038701267 41.46136458046213 1 1 0
915 3 7 0.1426590002 34.448097250709665 47.59067921469618 40.759422299464376 1 1 0
913 3 3 -0.038738 34.518673435575124 45.387818188375036 43.068547723126315 1 1 0
2627 6 13 -0.3582139999 30.004062533796763 46.16300705571277 42.53517427746539 1 0 0
2640 6 8 0.218378 29.733791499988307 47.032668452101845 42.19619109923911 1 0 0
2626 6 3 0.1014749999 30.02561125876035 46.35816356172131 43.882679427952276 1 0 0
2625 6 13 -0.358222 30.3381645630195 48.634048445943094 43.485508324264906 1 0 0
587 2 1 0.2576279998 33.4162002849548 52.758455229403694 43.78443704036076 1 0 1
2624 6 3 0.101217 29.97554760031723 47.63757864378199 44.32831680387058 1 0 0
2639 6 8 0.218378 30.833942973014317 49.33031740049351 43.94806985563354 1 0 0
801 2 1 0.2576290002 36.03362732192522 52.45222354836386 38.36400766645221 1 0 1
2338 6 3 -0.030409 30.932979721019734 52.381266894585025 37.92609243141689 1 0 1
2354 6 5 0.0650900002 30.048174001616353 52.29639931317813 38.4190173842074 1 0 1
900 3 3 0.023437 34.399971744644816 46.677664851500964 42.638336730961115 1 1 0
572 2 3 0.044175 30.954477400744267 52.997294180286104 43.39556238552178 1 0 1
574 2 3 -0.037388 30.035750262177178 53.384390056715525 42.37166464238995 1 0 1
575 2 3 -0.029358 28.68180294808619 53.00696239125155 42.42711170821481 1 0 1
2355 6 5 0.0650900002 28.79476886105425 49.03604830273386 38.399163641586235 1 0 1
605 2 3 -0.017827 35.965640282018114 53.47860123881492 43.88152202032247 1 0 1
799 2 1 0.257535 34.33160080303874 52.993540525189225 39.768080914599715 1 0 1
612 2 5 0.06592500010000001 36.27345045564977 52.54778324108929 44.37494511736867 1 0 1
912 3 3 -0.029401 33.885293827113784 45.07678463509648 44.27841781324621 1 1 0
802 2 12 -0.2708210001 36.966439560474676 52.57850246602316 37.543854137615 1 0 1
901 3 3 -0.038738 33.65391786316326 47.66628537964826 43.34238348555809 1 1 0
916 3 5 0.0643380001 33.623726536788205 48.668609464885606 42.94636442727051 1 1 0
569 2 3 0.0821070002 61.41028925233111 52.09975281410159 43.47347291522725 0 0 1
586 2 12 -0.2708210001 33.43773222150767 51.62660777988363 44.19909127597727 1 0 1
571 2 3 -0.037388 30.503698327689037 52.116514227012914 44.396317454912776 1 0 1
570 2 3 -0.029358 29.139052982341425 51.785673562508464 44.48565339365152 1 0 1
685 2 5 0.0643810002 38.64035792028233 44.75255566069002 42.72627521665712 1 0 1
883 2 3 0.023437 45.18610933856637 44.37899965944693 42.14451082093443 1 0 1
667 2 3 0.0821070002 41.43150465765417 44.68798541501464 44.642407175294096 1 0 1
184 1 5 0.06513400010000001 44.83918072555022 48.07958813555821 37.91440696443894 0 0 1
635 2 5 0.0643810002 40.98389894589766 50.10976771318087 37.967922736383926 1 0 1
676 2 3 -0.029358 40.172809332492136 45.06895788212414 44.135148091414706 1 0 1
482 2 3 0.08280999980000001 38.9236824447456 46.69537616256759 38.08371732578559 1 0 1
481 2 3 -0.030409 40.288037101931586 46.26621346242797 38.23086085864384 1 0 1
480 2 3 -0.046212 41.161993925961724 46.94996414000995 39.204218902666206 1 0 1
497 2 5 0.0650900002 40.72864150479604 45.60803619803046 37.5124102768909 1 0 1
496 2 5 0.0632240003 42.27562769355617 46.72162263521042 39.249210783144676 1 0 1
501 2 5 0.06592500010000001 37.22578100363919 47.81180946932356 38.842629718331956 1 0 1
494 2 3 -0.017827 38.297621177007606 47.60935125104456 38.92928730170447 1 0 1
495 2 3 0.053259 39.11922463814116 48.169673945717804 39.91328723236265 1 0 1
479 2 3 0.050832 40.4882464486793 47.884135272185105 39.97546339198453 1 0 1
477 2 1 0.2575330002 41.02604308097591 48.691717254967074 41.07358534276399 1 0 1
602 2 12 -0.2708210001 38.89724062892359 51.377219344275034 39.26921228701497 1 0 1
476 2 1 0.2576279998 38.755068903511756 49.174147449306176 40.96091239873611 1 0 1
475 2 12 -0.2708210001 37.65543717661461 49.595617509588436 41.184388791761194 1 0 1
876 2 3 -0.037388 45.0018341421997 50.87059580780635 42.984834177238625 1 0 1
889 2 5 0.0643810002 44.21572268390052 51.20365058446964 42.2870053000789 1 0 1
478 2 12 -0.270822 42.151746680171684 48.65057238838239 41.53417422919739 1 0 1
460 2 9 -0.2015900002 40.017667526388294 49.48894898812415 41.60023885329973 1 0 1
470 2 5 0.0643810002 42.10987364878223 51.228018142599254 42.16928728322907 1 0 1
459 2 3 0.044175 40.12740043708591 50.38345461715174 42.7213798879998 1 0 1
471 2 5 0.0643810002 38.14781656448583 49.98143622306085 43.60729413238189 1 0 1
461 2 3 -0.037388 39.0842535816145 50.5512867043642 43.69461821269847 1 0 1
458 2 3 -0.037388 41.336312303928146 51.15963181548865 42.91078553653986 1 0 1
890 2 5 0.06513400010000001 44.057759872512605 48.98340197682202 43.293066351367685 1 0 1
877 2 3 -0.029358 44.89737576893819 49.62718465248216 43.5791590177379 1 0 1
601 2 1 0.2576279998 39.746200087422245 52.22849855603598 39.562043770511536 1 0 1
611 2 5 0.06592500010000001 37.92553858073609 52.60201503345809 41.909753637652614 1 0 1
613 2 9 -0.2015900002 40.81926347683349 52.7297104363697 38.77609800168203 1 0 1
457 2 3 -0.029358 41.44680861559373 51.95530567830423 44.09715188931266 1 0 1
469 2 5 0.06513400010000001 42.40744873813337 52.49994685542146 44.27255246862128 1 0 1
683 2 5 0.06513400010000001 41.410232308432704 47.80554791770485 44.71703483805703 1 0 1
604 2 3 -0.017827 38.83172712500102 53.27089775409573 41.81682785080026 1 0 1
882 2 3 -0.038738 45.1130514448118 45.67591331548561 41.60079596440833 1 0 1
892 2 5 0.0643380001 45.09126854906009 45.708500523039746 40.5662215473272 1 0 1
891 2 5 0.06513400010000001 45.43148180852066 47.79586955923661 41.87134274480501 1 0 1
881 2 3 -0.029401 45.341363963538114 46.82043377016826 42.3851966796034 1 0 1
684 2 5 0.06513400010000001 39.57546198070416 45.95166462650788 44.556638984497184 1 0 1
462 2 3 -0.029358 39.21356566757498 51.419970389036735 44.80964537011468 1 0 1
603 2 3 0.053259 39.73800701230759 53.154060429666885 40.811983408544776 1 0 1
49 1 5 0.0650900002 48.40354467456359 50.274474922373145 37.01929079285883 0 0 1
34 1 14 -0.3104160002 47.867698401943386 52.755770127568795 37.76984443209577 0 0 1
863 2 12 -0.2708210001 46.077880137952675 52.54866882983179 40.59927189516108 1 0 1
180 1 5 0.06513400010000001 48.263922765434074 44.896334248636634 39.09468054024575 0 0 1
875 2 3 0.044175 46.045705305328795 51.72171829605219 43.28756099191977 1 0 1
896 2 5 0.06513400010000001 45.78830254419837 45.31565768253806 45.35299897985017 1 0 1
356 1 3 -0.017827 51.8061831558596 51.27646768810435 37.16000284227187 0 0 1
169 1 14 -0.310465 46.89574816070399 46.34607316911565 37.406084703230206 0 0 1
880 2 3 0.0821059998 45.72945693978295 46.66775106636398 43.72382398740983 1 0 1
879 2 14 -0.310465 46.112694222295175 47.79038244555664 44.472639786438336 1 0 1
878 2 3 0.0821070002 46.05551167180171 49.106761519880905 44.09254042811903 1 0 1
167 1 3 -0.029358 48.16855338702453 45.90424306449603 39.446432200278025 0 0 1
179 1 5 0.0643810002 49.25994374694356 45.5070187362508 41.30687095271466 0 0 1
886 2 3 -0.029401 45.73684020802355 45.33366546867503 44.261465083562115 1 0 1
168 1 3 0.0821070002 47.454066155278284 46.76775350631094 38.58410765476827 0 0 1
177 1 3 -0.029358 47.41083573734812 48.17120915816683 38.93588360276449 0 0 1
166 1 3 -0.037388 48.70860714407691 46.25793654431685 40.66885052359107 0 0 1
165 1 3 0.044175 48.60059411575384 47.64708711634623 41.032731963570555 0 0 1
185 1 5 0.06513400010000001 46.9439312054088 48.950510505951684 38.23835147990197 0 0 1
186 1 5 0.0643810002 47.827834644648256 49.62991640569632 40.47774675189973 0 0 1
178 1 3 -0.037388 48.001610195503986 48.61113107763916 40.14438892052275 0 0 1
344 1 3 0.08280999980000001 52.19877191241611 50.564437377492965 38.29970255855889 0 0 1
48 1 5 0.0650900002 49.398292178519846 51.165663935391564 39.161503025101794 0 0 1
345 1 14 -0.3104160002 51.60412912099483 49.36226011631649 38.63013313474464 0 0 1
346 1 3 0.08280999980000001 52.13174625173264 48.235737723179184 39.299500451145484 0 0 1
153 1 12 -0.2708210001 49.72333134605461 50.290757647414026 41.737263742840746 0 0 1
362 1 5 0.06592500010000001 52.40344732848206 48.99901354737791 41.375953642917736 0 0 1
355 1 3 -0.017827 52.405343971207955 48.14949866070787 40.683601641729425 0 0 1
32 1 3 -0.030409 49.59148977984104 52.245173137303965 39.33303125323994 0 0 1
47 1 5 0.0632240003 51.23530218715899 52.012809053976966 40.70166125025074 0 0 1
164 1 9 -0.2015900002 49.223634630974566 48.0819600036701 42.27735928226862 0 0 1
152 1 1 0.2576279998 49.64888844131865 49.345884570056974 42.46970579998037 0 0 1
151 1 12 -0.270822 48.887582414791744 46.1793035831741 43.64015092222493 0 0 1
150 1 1 0.2575330002 49.39005461863795 47.28408579352809 43.42074374752506 0 0 1
888 2 3 -0.037388 47.04839991346938 51.26753773391259 44.1589949818474 1 0 1
898 2 5 0.0643810002 47.85671915310803 51.91622564526372 44.49413339797064 1 0 1
887 2 3 -0.029358 47.13095743516796 49.8986927165296 44.4331786539689 1 0 1
897 2 5 0.06513400010000001 47.98015107248456 49.41731378099155 44.99046370696934 1 0 1
354 1 3 0.053259 52.70581122500553 46.86915013086316 41.20920635725412 0 0 1
154 1 3 0.053259 50.312962315743846 49.31881509055725 43.86986010239444 0 0 1
162 1 5 0.06592500010000001 51.131492770354505 51.22951061268383 44.17518424269462 0 0 1
155 1 3 -0.017827 51.15995456176039 50.213537374446055 44.47466950469262 0 0 1
149 1 3 0.050832 50.078804280971454 48.097192810369066 44.441383768455616 0 0 1
347 1 3 -0.030409 52.22337795702396 47.04753374547863 38.51021988465351 0 0 1
360 1 5 0.0650900002 52.13868874004759 47.10312053489402 37.492430434513835 0 0 1
31 1 3 -0.046212 50.61552006524428 52.69865985124497 40.10402573384097 0 0 1
343 1 3 -0.030409 53.196189091869016 51.17147765284257 39.144380349408934 0 0 1
352 1 1 0.2576290002 52.89340738441393 46.44772250066221 42.63739139164958 0 0 1
353 1 12 -0.2708210001 52.72866887918304 47.176217161121365 43.546082107828525 0 0 1
341 1 3 0.050832 53.247126085698504 53.108466096836686 37.74843863139217 0 0 1
441 1 5 0.06513400010000001 50.157386246661446 52.975666374743696 45.392558830885086 0 0 1
348 1 3 -0.046212 52.61939448446011 45.79549608504607 39.08969153994598 0 0 1
349 1 3 0.050832 52.77582793249699 45.712640328849766 40.47685860904875 0 0 1
874 2 9 -0.2015900002 46.00242542337274 53.04973226740351 42.79855613608228 1 0 1
33 1 3 0.08280999980000001 48.90010983743572 53.21748768728483 38.57812037840271 0 0 1
2342 6 3 -0.030409 28.5840235633428 49.330906385883 37.40408807524025 1 0 1
359 1 5 0.0650900002 53.37002737228161 50.75988086396953 40.135180170392296 0 0 1
579 2 5 0.06513400010000001 61.40862491893512 50.14321307792024 41.764589208987886 0 0 1
583 2 5 0.06513400010000001 61.19391015193989 53.44124799240139 41.634993495681584 0 0 1
2542 6 3 -0.030409 55.395537599500926 50.852579987867706 36.64316460067962 0 0 1
156 1 3 -0.017827 53.86529125254479 51.45956429985179 44.5715481298855 0 0 1
163 1 5 0.06592500010000001 54.168948768197396 50.440444231221335 44.36989297057062 0 0 1
342 1 3 -0.046212 53.70960584699273 52.463486478492314 38.87979098906591 0 0 1
566 2 3 -0.029358 60.42921423836558 49.916643578513245 41.89531120557512 0 0 1
568 2 14 -0.310465 60.100773541213655 51.62417917476391 43.56413210845956 0 0 1
578 2 5 0.0643810002 60.492185057392746 48.52243507968774 40.28408841856208 0 0 1
2343 6 3 -0.046212 60.327631917860856 49.14157290206896 36.85982097083759 0 0 1
554 2 3 -0.017827 57.637422756574075 45.35047170036805 37.68425841607814 0 0 1
2356 6 5 0.0632240003 59.61006056347264 48.73075386072531 37.579990279745864 0 0 1
2555 6 5 0.0650900002 54.763475329827514 50.16602242105007 37.204084527685914 0 0 1
2543 6 3 -0.046212 56.5879551591604 51.38990549478518 37.189475805550416 0 0 1
2556 6 5 0.0632240003 56.846862075364925 51.10731379565712 38.22728005952658 0 0 1
560 2 5 0.0632240003 54.825908562685555 47.84512928521784 37.51678986521452 0 0 1
547 2 3 -0.046212 55.61275423360698 47.20631561440851 37.49614480111517 0 0 1
548 2 3 0.050832 56.50629857289299 47.250051267200476 38.54407491786063 0 0 1
553 2 3 0.053259 57.421570102324665 46.26435633538094 38.74786781478367 0 0 1
549 2 1 0.2575330002 56.68464190497342 48.19626104426928 39.59396421180285 0 0 1
551 2 1 0.2576279998 58.331496384526815 46.60366576859401 39.8787542755267 0 0 1
550 2 12 -0.270822 56.03150694239777 49.20919208376351 39.63995651901685 0 0 1
563 2 9 -0.2015900002 57.81676691279885 47.8459390188668 40.31783435354335 0 0 1
552 2 12 -0.2708210001 59.3130334684418 46.045504096780775 40.26798487035577 0 0 1
765 2 3 -0.037388 57.23719980293809 45.19475867891613 42.837043812128044 0 0 1
565 2 3 -0.037388 59.8955949622866 48.887044715500835 41.12231838442758 0 0 1
567 2 3 0.0821070002 59.6683655944934 50.60991396281884 42.83290223032592 0 0 1
137 1 12 -0.2708210001 55.748491301185894 51.672950502087716 42.06758986447336 0 0 1
564 2 3 0.044175 58.4745306156021 48.62611679015174 41.268613977382664 0 0 1
576 2 3 -0.029358 58.356039126127854 50.240053659356676 43.01001770032972 0 0 1
584 2 5 0.06513400010000001 57.66065446504301 50.78139872099265 43.68449836562232 0 0 1
577 2 3 -0.037388 57.723376921594465 49.27760264833174 42.221875347650624 0 0 1
778 2 5 0.0643810002 56.490759379066475 45.904504646629064 42.553227180284075 0 0 1
585 2 5 0.0643810002 56.68299636850462 49.1424762141271 42.264873800519204 0 0 1
157 1 3 0.053259 54.43158954271253 52.575926140152475 43.87164374134959 0 0 1
764 2 3 0.044175 58.02132338733355 45.4932319144598 43.93916927822016 0 0 1
358 1 5 0.0632240003 54.53853681354505 52.78965489073447 39.44516388887854 0 0 1
2546 6 12 -0.270822 59.429605737843204 52.41495766536047 37.430656578829726 0 0 1
138 1 1 0.2576279998 55.37804257065039 52.623638933757995 42.73917529258506 0 0 1
133 1 5 0.0643810002 58.265378943928454 52.98583582591757 41.872800012403644 0 0 1
752 2 12 -0.2708210001 60.080219225567106 47.57300319906346 44.749147354122144 0 0 1
763 2 9 -0.2015900002 57.86120271418588 46.77729110784697 44.62247495533452 0 0 1
751 2 1 0.2576279998 58.8865843830079 47.64999522801094 44.97706378961837 0 0 1
750 2 12 -0.270822 55.573750621433334 46.76290065141786 45.09823966695221 0 0 1
294 1 3 0.08280999980000001 29.844438757091535 28.618816732093332 36.95703825227668 1 1 1
293 1 3 -0.030409 30.627093996280422 60.64298838881906 36.57712974929947 1 0 1
2321 6 7 0.1496919999 36.25967036963618 58.42267186204391 37.09313839840539 1 0 1
308 1 5 0.0632240003 31.524542881088422 58.726925253464216 37.26886418418454 1 0 1
839 2 6 0.033214 35.91449820009172 59.86296873897607 42.90349934868487 1 0 1
2088 5 3 -0.046212 31.067914175867017 28.871559505336492 40.69413268829139 1 1 1
824 2 2 -0.012104 34.95261270953761 60.32985086470228 42.64827437026323 1 0 1
306 1 3 -0.017827 29.04144302195159 28.59520385183795 38.143792085862124 1 1 1
2104 5 5 0.0632240003 31.75525678487776 28.74645052950592 39.851731285157626 1 1 1
1548 4 12 -0.270822 33.492907455815 61.54317606096504 38.33374568877944 1 0 1
573 2 9 -0.2015900002 32.28801581168335 53.50964431901677 43.470883893855564 1 0 1
606 2 3 0.053259 34.57980853449628 53.65154215478399 43.5658238063594 1 0 1
582 2 5 0.0643810002 30.398839866070542 53.96806403835203 41.56223867280117 1 0 1
292 1 3 -0.046212 30.834161923786468 59.56249205863172 37.47065829958382 1 0 1
2090 5 3 0.08280999980000001 30.219735927305887 61.18190127660148 42.852143675041006 1 0 1
841 2 5 0.062665 32.535212490740456 61.04095177042015 43.9552140087861 1 0 1
840 2 6 0.033214 34.11435707306736 59.5983935768289 42.78074374852497 1 0 1
813 2 9 -0.2014969998 35.47331939406256 53.48963543025507 39.1428214658859 1 0 1
800 2 12 -0.270822 33.64680927788375 53.56736142562001 40.552993484307635 1 0 1
2322 6 4 0.047031 36.01923146223666 60.75252148741724 37.50009631238198 1 0 1
837 2 4 0.047031 35.46401447431756 28.573233898770567 40.9948020267514 1 1 1
2337 6 3 -0.046212 31.533286104216813 53.66003023809387 37.85261461947172 1 0 1
2353 6 5 0.0632240003 31.201551504508974 54.60197901442029 38.34460490870425 1 0 1
290 1 12 -0.270822 30.227978616356697 57.23426623621177 39.39473474477154 1 0 1
821 2 12 -0.271952 33.57729158462298 58.34062689119322 40.132803417733236 1 0 1
2336 6 3 0.050832 32.70998306004558 53.8020869802823 37.10777617877491 1 0 1
846 2 5 0.0651200002 34.1220717367578 55.72388377083699 39.847596060805074 1 0 1
820 2 1 0.2430250001 34.76512084735717 58.46034891385139 40.00643167300726 1 0 1
838 2 4 0.047031 33.80255117927451 60.86858108562727 40.878275812820746 1 0 1
822 2 10 -0.3110300001 35.53692718647916 59.59426240410403 40.408632092171224 1 0 1
819 2 3 0.040792 35.58562909346249 57.23217225875932 39.57801408953368 1 0 1
833 2 3 -0.027289 35.12934948308301 55.88865311853999 39.58544466588563 1 0 1
814 2 3 0.046667 35.946392568788234 54.7868624989713 39.23743807433151 1 0 1
836 2 7 0.1496919999 36.52902577748889 59.5037832039264 40.2163553433239 1 0 1
823 2 2 0.015325 34.91325942550537 60.75951148211303 41.161571686410724 1 0 1
2089 5 3 -0.030409 30.943676457900125 60.94537766123959 41.6246617619224 1 0 1
2105 5 5 0.0650900002 31.483113088397825 60.02940881835181 41.471940545831835 1 0 1
282 1 5 0.0643810002 30.099385931416908 57.052171240007 42.14598846369508 1 0 1
2091 5 14 -0.3104160002 30.083156461355607 60.14480181914796 43.685613134049866 1 0 1
733 2 5 0.06513400010000001 32.74705997089373 58.09404252204706 44.20887891565121 1 0 1
589 2 12 -0.270822 32.04065651111237 55.645941012654 42.50725113355589 1 0 1
588 2 1 0.2575330002 32.69663308932593 54.7261666443293 43.014253158195785 1 0 1
607 2 5 0.0632240003 34.562519883527536 56.912223393622625 42.574762021545375 1 0 1
590 2 3 0.050832 34.1162026025404 54.873894941966 43.130944037813094 1 0 1
591 2 3 -0.046212 34.9723511096766 55.97200648177052 42.97357638706549 1 0 1
592 2 3 -0.030409 36.37340285678156 55.73485892081358 43.12023367240902 1 0 1
291 1 3 0.050832 29.968175421756058 59.50708298095611 38.587981835756835 1 0 1
289 1 1 0.2575330002 29.769017456818506 58.35681554370176 39.55877009809198 1 0 1
272 1 3 -0.037388 28.996896016954093 57.085373821422294 42.28756883843466 1 0 1
307 1 3 0.053259 29.09981142692704 60.485928758020705 38.90913369858415 1 0 1
274 1 9 -0.2015900002 28.740393380858286 58.70557996947689 40.379891310053644 1 0 1
732 2 5 0.0643810002 31.014893167728598 56.562533494223764 44.96260033263593 1 0 1
725 2 3 -0.029358 32.92365449966438 57.40582409119379 45.049305259041105 1 0 1
2325 6 6 0.033214 38.769202048168374 61.06787236443739 36.38575067372688 1 0 1
2308 6 2 0.015325 36.76379482421113 60.53816176688419 36.74081735180691 1 0 1
2023 5 3 -0.029358 41.99989345514566 28.797317893720198 39.27801405395692 0 1 1
2015 5 14 -0.310465 41.341367123417655 29.086336279220593 37.01395582836768 0 1 1
818 2 3 -0.027289 36.88907307295775 57.5064323150924 39.212344287883674 1 0 1
835 2 5 0.0651200002 37.23514872977284 58.49486055069577 39.05604044457302 1 0 1
593 2 3 0.08280999980000001 36.88896964659121 54.564552514084816 43.67147990232232 1 0 1
2031 5 5 0.06513400010000001 42.42372178830641 60.97165183184224 38.95645155437732 0 0 1
815 2 3 -0.017728 37.28268461823292 55.132481198773775 38.94040057313909 1 0 1
608 2 5 0.0650900002 37.05419604670921 56.54981444777929 42.99244021079968 1 0 1
816 2 3 0.046667 37.7590170388829 56.48599470697832 38.884741478315526 1 0 1
852 2 3 -0.046212 42.371321480107035 56.66098672326355 36.92078047829428 1 0 1
869 2 5 0.0650900002 44.524538130068564 56.77214435702922 36.82184596916753 1 0 1
853 2 3 -0.030409 43.648573691687076 57.014237275044714 37.46373976462915 1 0 1
2324 6 6 0.033214 38.7482283675036 60.13639028841683 37.742422389165185 1 0 1
2309 6 2 -0.012104 38.16462964080965 60.94678712836921 37.21492518765563 1 0 1
598 2 3 0.050832 40.80093736336371 54.080864574179685 40.65179776581314 1 0 1
834 2 5 0.0663080001 38.08017755686319 54.39691996924478 38.8037588830408 1 0 1
599 2 1 0.2575330002 41.57073714058178 53.701565132436826 39.403502511762355 1 0 1
849 2 1 0.257535 39.81247799485389 56.52690137518657 37.45006898097972 1 0 1
851 2 3 0.050832 41.22778149453702 56.92224907191803 37.70319069407243 1 0 1
817 2 9 -0.2014969998 39.1175676760062 56.77853136103461 38.64798725784367 1 0 1
867 2 3 0.053259 41.30275796473194 57.5872547620741 38.926236254093794 1 0 1
848 2 1 0.2576290002 39.984326808177144 57.46827792647586 39.58912165975839 1 0 1
847 2 12 -0.2708210001 39.71646476604164 57.71626785240254 40.74702354622137 1 0 1
597 2 3 -0.046212 41.05885181342759 55.041007385164896 41.63893110165375 1 0 1
866 2 3 -0.017827 42.57012758851601 57.93978530769412 39.45497895104524 1 0 1
873 2 5 0.06592500010000001 42.62451288482624 58.324835530979584 40.483773078729975 1 0 1
600 2 12 -0.270822 42.58971570009445 54.21722039461085 38.964926656283886 1 0 1
610 2 5 0.0632240003 41.86685259685893 55.70225480481679 41.588188028974486 1 0 1
854 2 3 0.08280999980000001 43.73822874016885 57.60045523348752 38.755918779562975 1 0 1
872 2 5 0.06592500010000001 45.297119282175046 55.10458477165963 39.243268250140176 1 0 1
855 2 14 -0.3104160002 44.949803223281634 57.766228573000824 39.368557592131666 1 0 1
595 2 3 0.08280999980000001 39.072987191374594 54.30930812012676 42.782145341195715 1 0 1
594 2 14 -0.3104160002 38.25091116531631 54.3624305724507 43.82421140282649 1 0 1
700 2 12 -0.270822 41.57220366038502 58.562686561505174 44.52333398392783 1 0 1
596 2 3 -0.030409 40.16759547364799 55.216728030724454 42.72402995715728 1 0 1
609 2 5 0.0650900002 40.42941568921184 55.84181097170447 43.58096339717012 1 0 1
333 1 5 0.0643810002 52.280412857499726 56.984807609328215 37.05674250581143 0 0 1
233 1 5 0.0643810002 46.407924575081594 28.447940335720308 43.691645350262014 0 1 1
865 2 3 -0.017827 45.39558543154532 55.563051140244184 40.2177550384087 1 0 1
864 2 3 0.053259 45.81101717724654 54.80455995507225 41.32469012180514 1 0 1
856 2 3 0.08280999980000001 45.28855831765546 56.95979523593384 40.414432591390245 1 0 1
857 2 3 -0.030409 45.46514443633495 57.526983777963494 41.66516149017184 1 0 1
870 2 5 0.0650900002 45.36427841319481 58.62337849436977 41.716271825105736 1 0 1
862 2 1 0.2576279998 45.91836463106194 53.32616846381187 41.481956655067194 1 0 1
859 2 3 0.050832 45.94150029188174 55.34249702237766 42.572296250341466 1 0 1
52 1 5 0.06592500010000001 48.6565414159046 55.22220299539194 37.99438236759371 0 0 1
229 1 5 0.0643810002 45.24563932329611 59.5145073253412 37.454247535812705 0 0 1
443 1 5 0.0643380001 48.539517076705216 55.031873552202875 41.96223991479688 0 0 1
444 1 7 0.1426590002 48.88065261467359 58.540401859758404 40.77478572632288 0 0 1
445 1 7 0.1426590002 48.304224803679475 56.853892436913284 40.444708092297404 0 0 1
435 1 11 -0.3582950001 48.63115641135819 57.57035437785127 41.127293032710256 0 0 1
216 1 3 -0.037388 45.903177035799345 60.37262004590134 37.36239212885146 0 0 1
217 1 3 -0.029358 46.19338680868867 61.20355823777824 38.466429879290516 0 0 1
230 1 5 0.06513400010000001 45.6113888588653 61.05639607674881 39.36528821660323 0 0 1
860 2 1 0.2575330002 46.178434738963645 54.21846488209669 43.555309157333085 1 0 1
442 1 5 0.06513400010000001 49.150642706191036 54.03842488792329 43.91880229632369 0 0 1
433 1 3 -0.038738 48.90502943695359 55.66309893636861 42.69500346818349 0 0 1
432 1 3 -0.029401 49.21191754167062 55.1008044837895 43.912755569106096 0 0 1
45 1 3 -0.017827 49.256189796615516 54.559948857472975 38.573665946759746 0 0 1
30 1 3 0.050832 50.99988541614543 54.010052027276046 40.090917698718584 0 0 1
46 1 3 0.053259 50.38812588347955 54.91369918473133 39.30336201902071 0 0 1
29 1 12 -0.270822 52.51515752924634 54.28841417173621 41.89135584041312 0 0 1
858 2 3 -0.046212 45.73518725750709 56.752383558533104 42.793647391109104 1 0 1
446 1 5 0.0643380001 49.71972897267982 58.915477035898235 43.356555470569354 0 0 1
434 1 3 0.023437 49.08214472948909 57.05098216080117 42.41702122864635 0 0 1
437 1 3 -0.029401 49.97721983526483 57.31770312282788 44.66021889095087 0 0 1
436 1 3 -0.038738 49.63047937259917 57.7925881066148 43.463255791534394 0 0 1
28 1 1 0.2575330002 51.92218496176264 54.7341449079416 40.93827841831815 0 0 1
431 1 3 0.0821059998 49.74933075662549 55.9210597371965 44.94499964974479 0 0 1
26 1 12 -0.2708210001 50.560070430046935 57.25865292875102 38.905623437218445 0 0 1
27 1 1 0.2576279998 50.95020143796525 56.222421771394195 39.429575237043274 0 0 1
11 1 9 -0.2015900002 51.93213217335085 56.050429372950276 40.43977822834759 0 0 1
10 1 3 0.044175 52.64074098755901 57.13760277540914 41.020848577483655 0 0 1
9 1 3 -0.037388 52.591025647892735 57.24424173143846 42.434005284505325 0 0 1
871 2 5 0.0632240003 45.842968058943256 57.19753156083 43.754391452100734 1 0 1
861 2 12 -0.270822 46.52260254193492 54.30340057542794 44.711342633889615 1 0 1
8 1 3 -0.029358 52.99937362800388 58.39308366461492 43.12734924769699 0 0 1
21 1 5 0.0643810002 51.98533080563932 56.522190739468336 43.021311283446956 0 0 1
20 1 5 0.06513400010000001 52.787136000105676 58.61221157673749 44.216594887553384 0 0 1
22 1 5 0.0643810002 52.83628417233351 58.263593510107654 39.224736441171885 0 0 1
12 1 3 -0.037388 52.95626476823946 58.31650460772432 40.29852728784104 0 0 1
237 1 12 -0.2708210001 47.45282279107903 59.261537292740336 45.02495243480385 0 0 1
13 1 3 -0.029358 53.33021020373408 59.50511904839339 40.98895019070163 0 0 1
7 1 3 0.0821070002 53.40105994616938 59.53413272744356 42.446601005301005 0 0 1
23 1 5 0.06513400010000001 53.631850786663975 60.334720293232444 40.43722133425271 0 0 1
1815 5 5 0.06513400010000001 54.145464767287066 59.36795510745155 37.74368656085337 0 0 1
2574 6 5 0.0643810002 60.81679639070916 54.48446430750377 36.99395101671736 0 0 1
313 1 5 0.06592500010000001 61.462365367553176 29.396742970225834 38.35232819841211 0 1 1
5 1 3 0.0821059998 54.87241124954552 61.441989485488364 42.936917437721974 0 0 1
15 1 3 -0.038738 57.10798905576402 28.574562938501927 42.09818116348934 0 1 1
25 1 5 0.0643380001 57.99833972744193 61.26618057866689 41.6111457911542 0 0 1
281 1 5 0.06513400010000001 29.135474000345454 55.58972174097747 43.81321524033013 1 0 1
6 1 14 -0.310465 53.759024568966424 60.677792799808756 43.167642263081966 0 0 1
339 1 1 0.2575330002 53.50294452665597 54.50771808901324 37.26201841711103 0 0 1
127 1 3 -0.029358 59.992908230282936 57.04833901589751 36.7155447121924 0 0 1
117 1 3 -0.029358 57.829591873284016 55.976478504788545 36.77028762084559 0 0 1
135 1 5 0.06513400010000001 60.825218084034546 57.460692050071394 37.17265230853086 0 0 1
130 1 5 0.06513400010000001 57.02082888610319 55.41483468817137 37.283387586176545 0 0 1
1814 5 5 0.0643380001 56.60747112019442 58.553071245755746 37.77713187977422 0 0 1
118 1 3 0.0821070002 58.98480974848902 56.39272194635433 37.41065916012948 0 0 1
1813 5 7 0.1426590002 58.892842214625 59.09619887724406 38.6057476938188 0 0 1
271 1 3 -0.029358 61.509547429322964 56.16994004964349 43.24390224331735 0 0 1
1800 5 3 -0.029401 54.99639751225878 60.06486042608293 37.89664755385016 0 0 1
1812 5 7 0.1426590002 59.28745215916726 60.68069013635733 38.86658458287988 0 0 1
1799 5 3 -0.038738 56.34884602285416 59.59172664641456 37.94794268194262 0 0 1
1797 5 11 -0.3582950001 58.65709125128902 60.01983577533976 38.44724217749983 0 0 1
1798 5 3 0.023437 57.378257905481945 60.4436412553695 38.36535414761105 0 0 1
340 1 12 -0.270822 54.40921552038512 55.25472119758004 37.6431645145955 0 0 1
288 1 1 0.2576279998 61.39995491279849 60.036016855030994 40.05916675739289 0 0 1
134 1 5 0.06513400010000001 59.584139737097175 53.94230680114464 40.05104381857373 0 0 1
132 1 5 0.0643810002 55.1750331414248 55.90563672552439 40.991679008668385 0 0 1
126 1 3 -0.029358 58.69166146953 54.40305535689212 40.263936062516095 0 0 1
287 1 12 -0.2708210001 60.5737151116861 60.68568373707585 40.68383746215549 0 0 1
122 1 3 -0.037388 56.17845401258044 55.49306973506353 40.761023246167134 0 0 1
120 1 3 0.0821070002 58.345895518469334 55.59580311930755 39.58493951638804 0 0 1
121 1 3 -0.029358 57.06663481661806 56.161660551312366 39.87501801076914 0 0 1
131 1 5 0.06513400010000001 56.74510066844677 57.05797662255031 39.368048075531746 0 0 1
119 1 14 -0.310465 59.21945061732358 56.19790166346273 38.732375912991316 0 0 1
283 1 5 0.0643810002 59.20919324890416 58.33947799420166 40.93986949328038 0 0 1
141 1 3 0.050832 54.08652611125912 53.852042792782086 44.1853958415271 0 0 1
124 1 9 -0.2015900002 55.74752925232934 53.94084870148113 42.54912636631273 0 0 1
125 1 3 -0.037388 57.863992441429545 53.77668843223128 41.27145271523386 0 0 1
139 1 1 0.2575330002 54.94078764169808 54.7638098375752 43.394917594493855 0 0 1
140 1 12 -0.270822 54.99889571199351 56.01787475569773 43.52444824084563 0 0 1
24 1 5 0.06513400010000001 56.176306085975064 59.751071347039435 42.379458211411674 0 0 1
14 1 3 -0.029401 56.02646944654098 60.85901745339959 42.427699310111514 0 0 1
123 1 3 0.044175 56.58893061147204 54.36603220337422 41.530094758908334 0 0 1
273 1 3 0.044175 61.276181704623696 57.857310252073674 41.44905558343877 0 0 1
275 1 3 -0.037388 59.8634851761786 57.726877362937074 41.6062558808476 0 0 1
2108 5 5 0.06592500010000001 60.68361536363295 60.40064482272834 43.279275374494105 0 0 1
270 1 3 0.0821070002 60.09717265938535 56.077330892939656 43.3997940929847 0 0 1
284 1 5 0.06513400010000001 58.22968604271518 56.75215422814228 42.53588235432812 0 0 1
276 1 3 -0.029358 59.30254307705968 56.85740588213652 42.541437084060156 0 0 1
269 1 14 -0.310465 59.51402243995557 55.18424836303759 44.25224063922613 0 0 1
829 2 13 -0.358222 33.91447546066721 31.709403241727795 45.84304155731354 1 1 1
1315 3 3 -0.017827 35.24351204671928 29.654756175230773 48.27701995322401 1 1 0
1043 3 14 -0.3104160002 35.61693787411548 34.61594676456464 46.69583141497679 1 1 0
1057 3 5 0.0650900002 32.89713737271383 34.08892087186772 46.71695029216287 1 1 0
1042 3 3 0.08280999980000001 34.58278522163833 35.25776964790739 47.46307917435863 1 1 0
1041 3 3 -0.030409 33.23050602369351 34.91128731359983 47.35100905937072 1 1 0
1056 3 5 0.0632240003 31.26220271437915 35.22251569160758 47.89821019588554 1 1 0
1040 3 3 -0.046212 32.223626096105065 35.57598490514638 48.05642486238238 1 1 0
1283 3 5 0.0663080001 32.86900529871279 32.90206775999708 51.29112086241402 1 1 0
1296 3 12 -0.2708210001 34.320652112768364 32.345666674892655 49.363287947234724 1 1 0
1625 4 3 -0.037388 31.30562360950228 30.408436600205093 52.49431004404281 1 1 0
1624 4 3 -0.029358 32.628151570316156 30.173730992310983 52.00032228004926 1 1 0
1632 4 5 0.06513400010000001 33.425382512594354 30.88605814904881 52.28365593581289 1 1 0
1633 4 5 0.0643810002 31.058194417253258 31.30169189563142 53.022508743486235 1 1 0
1612 4 3 0.044175 30.350325724045394 29.370927384741353 52.45532238685631 1 1 0
1297 3 1 0.2576290002 33.563506041522146 31.426905133874484 49.10852066452331 1 1 0
1316 3 3 0.053259 33.96691170783321 30.13797811146984 48.55225515427975 1 1 0
1264 3 3 -0.017728 32.0550640608749 33.28893421888457 50.751477350089885 1 1 0
1263 3 3 0.046667 31.4604446992815 34.51553718290032 51.15297565845198 1 1 0
1266 3 9 -0.2014969998 32.161943234760194 31.39761633952016 49.24265953332625 1 1 0
1265 3 3 0.046667 31.428271222127528 32.47110112280539 49.77073000659543 1 1 0
1298 3 1 0.257535 31.63836571268979 30.22017599617646 48.756095648966195 1 1 0
1300 3 3 0.050832 32.833675366228725 29.384725971971722 48.46345599258861 1 1 0
1299 3 12 -0.270822 30.47364619324137 29.959027826471377 48.640535210769485 1 1 0
1282 3 3 -0.027289 30.154310457987265 34.830390017358376 50.670617623277586 1 1 0
1267 3 3 -0.027289 30.235239786601078 32.86393765255264 49.181762984445896 1 1 0
1284 3 5 0.0651200002 29.846991433072436 32.41994404351066 48.2880510056322 1 1 0
1251 3 12 -0.2708210001 34.28053870914621 34.90000694492983 51.290869379663384 1 1 0
1262 3 9 -0.2014969998 32.23402477949793 35.37456155493788 51.99111345552788 1 1 0
1295 3 5 0.0651200002 29.681347287111517 35.772390621930256 50.94113682595487 1 1 0
1250 3 1 0.2576290002 33.57454981442386 35.579468421851935 51.962309596344056 1 1 0
1611 4 9 -0.2015900002 29.056328845149206 29.546578282296526 53.051308141104144 1 1 0
1268 3 3 0.040792 29.60533726664525 34.00050850534415 49.69251011253827 1 1 0
1285 3 7 0.1496919999 29.487717678431423 36.162749967486754 48.31696992343487 1 1 0
1248 3 1 0.257535 31.66233346211064 36.22089872022109 52.918938446068054 1 1 0
1615 4 3 0.0821070002 32.84725083621503 28.918430342718494 51.46954835602877 1 1 0
1617 4 3 0.0821070002 35.1844150840823 28.544452263735465 51.752401501907485 1 1 0
1598 4 12 -0.270822 61.43839923455572 31.428158969873916 51.936065940240724 0 1 0
1597 4 1 0.2575330002 61.29389168997996 30.67932072566263 52.86202593992837 0 1 0
1303 3 3 0.08280999980000001 35.37128697521195 61.41889521348175 48.08711864009795 1 0 0
1269 3 1 0.2430250001 28.4460371854271 34.462803508113886 48.92619595943689 1 1 0
1054 3 3 -0.017827 34.86434711901161 36.42283117279664 48.22654455912685 1 1 0
1322 3 5 0.06592500010000001 36.032868763908226 30.371916270360778 48.2275299752945 1 1 0
1618 4 3 -0.029358 36.11426134239829 29.58445349978497 51.634494384095746 1 1 0
1628 4 5 0.06513400010000001 36.03373955836403 30.20387993804294 50.78991644564475 1 1 0
2000 5 3 0.053259 42.78228361663023 31.710275241765704 44.29183112377015 0 1 1
1995 5 3 0.050832 41.46676287221474 32.06590320970289 44.301929645542536 0 1 1
1060 3 5 0.06592500010000001 36.51992931545392 33.143405428607764 48.77886510854474 1 1 0
1044 3 3 0.08280999980000001 36.923247470493806 34.66285045026988 47.19479130152412 1 1 0
1053 3 3 -0.017827 37.204649155294625 33.9349272329888 48.32937431751065 1 1 0
2007 5 5 0.0632240003 39.846074133341745 32.937491271673345 45.448102659838625 0 1 1
1994 5 3 -0.046212 40.86701762025146 32.67381706181128 45.43609665266948 0 1 1
2001 5 3 -0.017827 43.65871759607491 31.90432609559924 45.39241386561912 0 1 1
1321 3 5 0.06592500010000001 38.23192860451886 29.69294584326345 48.166921941706256 1 1 0
1314 3 3 -0.017827 38.37134342122067 29.006460326362653 48.98860844368538 1 1 0
1993 5 3 -0.030409 41.74792658264597 32.89236240012888 46.65580839767726 0 1 1
1992 5 3 0.08280999980000001 43.10601919570832 32.54962568718601 46.565834775542754 0 1 1
1047 3 3 0.050832 39.293160161986606 35.0743068584643 48.50350730496106 1 1 0
1312 3 12 -0.2708210001 40.85507868226056 30.68479152793144 48.77625233334899 1 1 0
1338 3 5 0.0643810002 43.69242522653565 30.314610015136033 49.10411458479878 1 1 0
1325 3 3 -0.037388 43.84567401353274 30.405778771829777 50.156091296450924 1 1 0
1311 3 1 0.2576279998 40.68538813469018 29.866709035787895 49.65900399554452 1 1 0
2006 5 5 0.0650900002 41.40686976739458 33.18394951350258 47.622227586796996 0 1 1
1048 3 1 0.2575330002 40.34291279365971 35.1595333524862 49.54147968314347 1 1 0
1324 3 3 0.044175 42.82229296621162 30.08666303448517 51.08257925580973 1 1 0
1323 3 9 -0.2015900002 41.53077627152489 29.517313481766113 50.70744570651871 1 1 0
1052 3 3 0.053259 38.347661987875476 34.21286085864576 49.03058248568759 1 1 0
1051 3 12 -0.2708210001 38.28958662687418 32.74813887729584 50.88239219430315 1 1 0
1050 3 1 0.2576279998 38.74622291349762 33.718022030146834 50.34433580925241 1 1 0
1062 3 9 -0.2015900002 39.98865000800692 34.287152338803416 50.569982001993736 1 1 0
1063 3 3 0.044175 40.940427122058324 33.9547390238285 51.61813447824095 1 1 0
1076 3 3 -0.037388 42.29832642000998 34.04233895245887 51.51608408666385 1 1 0
1619 4 3 -0.037388 37.233150666304105 29.56609738808778 52.47510698143071 1 1 0
1337 3 3 -0.037388 43.16811286548319 30.2827365979611 52.38738016091909 1 1 0
1313 3 3 0.053259 39.47438589414265 29.03393607896665 49.76669270767986 1 1 0
1045 3 3 -0.030409 37.83009845265615 35.59076287421694 46.68240000683937 1 1 0
1049 3 12 -0.270822 41.29132956760044 35.812505607381276 49.42306367881203 1 1 0
2009 5 5 0.06592500010000001 44.37476291825276 34.87850802905742 45.72952914337241 0 1 1
1075 3 3 -0.029358 43.1229781179914 33.85004823147552 52.6325713994668 1 1 0
1629 4 5 0.0643810002 37.984267113048446 30.231478424531215 52.14927122398268 1 1 0
1336 3 3 -0.029358 44.27544755980142 30.925889110604817 52.830109579324656 1 1 0
1046 3 3 -0.046212 39.07639320604866 35.79245806956677 47.350453054029686 1 1 0
1083 3 5 0.06513400010000001 44.18802808319214 34.10014826353323 52.486851011931556 1 1 0
1084 3 5 0.0643810002 42.73713046735017 34.17867997637606 50.51928168725722 1 1 0
1077 3 5 0.0643810002 39.26735125898803 33.552616308989684 53.01703573801853 1 1 0
1064 3 3 -0.037388 40.37513814235981 33.61842258108752 52.925469640362344 1 1 0
1879 5 8 0.218378 44.345951753245046 28.953890778432527 44.964035276294 0 1 1
1309 3 1 0.2575330002 40.98957605648585 28.493951967221808 51.49412132618747 1 1 0
1058 3 5 0.0650900002 37.63390494838323 36.08395454572332 45.73362122284976 1 1 0
1865 5 13 -0.358222 43.522716526320984 28.56087243530438 45.3109521040769 0 1 1
1991 5 14 -0.3104160002 43.94557398847762 32.84620413989066 47.618711667012036 0 1 1
1326 3 3 -0.029358 45.078951188192946 30.990210596859928 50.55555467916523 1 1 0
1347 3 5 0.0643810002 42.388248681920864 30.206188241710986 53.18938795309414 1 1 0
2242 5 5 0.0643380001 46.03995980222012 33.55507696422591 44.34398914586346 0 1 1
1829 5 3 0.08280999980000001 49.182279162425715 35.512148210673224 44.54589277058774 0 1 1
2008 5 5 0.06592500010000001 44.62101413528416 31.427642252488468 45.42697776228394 0 1 1
1848 5 5 0.06592500010000001 49.93850727714169 33.53578983027483 45.17873386018509 0 1 1
2129 5 5 0.0643810002 51.61994211078058 32.3093693278934 45.494437114147715 0 1 1
2240 5 7 0.1426590002 47.49689081548344 31.757695940761586 44.8414401992524 0 1 1
2002 5 3 -0.017827 44.6330825635099 35.06561686346034 46.72602500585761 0 1 1
1990 5 3 0.08280999980000001 44.550013437054616 34.082658374714576 47.771124935184226 0 1 1
2005 5 5 0.0650900002 45.19937349566699 33.64440256779676 49.849053270074464 0 1 1
240 1 12 -0.270822 50.33447486467999 29.75055321549135 45.32587801417786 0 1 1
239 1 1 0.2575330002 49.70192980986741 28.74764998807401 45.58870629114192 0 1 1
1830 5 14 -0.3104160002 48.72069534986418 35.82187320170992 45.763848419376444 0 1 1
1339 3 5 0.06513400010000001 45.86637603626426 31.162155146594266 49.87930823388551 1 1 0
1327 3 3 0.0821070002 45.31415290494019 31.21370141407904 51.95198135098423 1 1 0
1847 5 5 0.06592500010000001 47.994774918750224 33.397844291581336 46.49577803645185 0 1 1
1840 5 3 -0.017827 48.5023619646321 33.971897191959386 47.25391718725311 0 1 1
1831 5 3 0.08280999980000001 48.91817507452379 35.2354646336135 46.99925341051063 0 1 1
1989 5 3 -0.030409 45.19101021823968 34.350310157426556 49.01284834236266 0 1 1
1988 5 3 -0.046212 45.874724660437494 35.54250085386739 49.28279640397075 0 1 1
2121 5 3 -0.037388 52.25360392367852 32.34777259383776 46.35742913910303 0 1 1
2130 5 5 0.06513400010000001 52.48881419497761 30.28326930588184 46.65138674489761 0 1 1
1832 5 3 -0.030409 49.22648074493335 36.02007686881537 48.172798724356156 0 1 1
1882 5 5 0.0651200002 47.356039345409336 29.988710849150905 50.610117252587685 0 1 1
1869 5 3 -0.027289 48.25662955303285 29.69849287040194 51.081914104525495 0 1 1
1838 5 12 -0.2708210001 47.957444261233285 31.018762687723925 48.287890954271894 0 1 1
1837 5 1 0.2576290002 48.4325298693696 31.97785319597889 48.95543395132843 0 1 1
1850 5 3 0.046667 49.23081440076814 30.653695809750555 50.98830946729625 0 1 1
1839 5 3 0.053259 48.6952648842408 33.38548520581297 48.54158025148402 0 1 1
1849 5 9 -0.2014969998 49.04913462330927 31.820865700489534 50.230209299180096 0 1 1
1834 5 3 0.050832 49.369508669495026 34.03611996550742 49.52537237672484 0 1 1
1835 5 1 0.257535 49.606139633510054 33.06891138705606 50.62044096211572 0 1 1
1836 5 12 -0.270822 50.10538020859456 33.33892793591722 51.7043802136847 0 1 1
1851 5 3 -0.017728 50.511238077605654 30.31044304781117 51.48742986561108 0 1 1
258 1 5 0.0632240003 51.10230078223057 29.063877348636968 48.16217259977901 0 1 1
1870 5 5 0.0663080001 51.32503582834606 30.96600794953014 51.27450127347353 0 1 1
2122 5 3 -0.029358 52.63824321207734 31.236889039873347 47.102042570781876 0 1 1
1833 5 3 -0.046212 49.60787583102544 35.43269290319008 49.381626499350055 0 1 1
1846 5 5 0.0632240003 50.075517418108234 35.98856963599749 50.18124437632888 0 1 1
2119 5 3 0.044175 52.66873905824471 33.63235472511437 46.79790324124113 0 1 1
2134 5 1 0.2576279998 52.385485036650294 35.96985098955355 46.01551591688124 0 1 1
2120 5 9 -0.2015900002 52.69195886416583 34.66410644627666 45.80801418964644 0 1 1
1328 3 14 -0.310465 46.46310085949263 31.76579209471318 52.32861836234251 1 1 0
1878 5 5 0.0651460002 45.846509147586346 60.98915389666601 46.06963124164972 0 0 1
1852 5 3 0.046667 50.74860828140048 29.088203759297937 52.212711193457764 0 1 1
1872 5 7 0.1496919999 46.1345380602517 28.8746725296353 50.91680578923149 0 1 1
2116 5 3 0.0821070002 53.423423138001155 31.29981851203845 48.24110778885282 0 1 1
1855 5 3 0.040792 48.433949405152795 28.557064812973348 51.877492281678 0 1 1
2133 5 12 -0.2708210001 52.071463190577916 36.458128251700245 47.096296854846294 0 1 1
242 1 3 -0.046212 50.41731476408905 61.31053789262762 48.087961303813415 0 0 1
241 1 3 0.050832 49.68948398175974 61.161647762456724 46.883701265266865 0 0 1
1340 3 5 0.06513400010000001 47.506983188763726 33.748549874617446 53.66385066688916 1 1 0
1913 5 3 -0.029358 60.454127122340196 33.73571074062984 44.80058626341921 0 1 1
1925 5 5 0.0643810002 61.55648884809581 32.63186865754751 46.16456362808459 0 1 1
2118 5 3 -0.037388 53.311932561663866 33.77360337461993 48.00557645813456 0 1 1
2128 5 5 0.0643810002 53.61726756549213 34.75893007273675 48.40282037494321 0 1 1
2115 5 14 -0.310465 53.82558932825985 30.145809119096384 48.82625331061228 0 1 1
2117 5 3 -0.029358 53.7600753849009 32.60653212394823 48.68413381213845 0 1 1
1897 5 12 -0.270822 61.11455919401975 30.065958710983033 47.008137448921204 0 1 1
1271 3 10 -0.3110300001 28.63937934140948 35.63740622804998 48.19056566536685 1 1 0
2132 5 5 0.0643810002 57.18335335722307 29.38048272917036 45.86803753145324 0 1 1
2127 5 5 0.06513400010000001 54.437090597016315 32.68375257713471 49.49779648900913 0 1 1
1924 5 3 -0.037388 58.04257536447875 32.62308142960711 45.681869100083986 0 1 1
1932 5 5 0.0643810002 57.088659735280615 32.11591348391134 45.983708614482424 0 1 1
2114 5 3 0.0821070002 54.88231381380828 29.40606804612984 48.36210636338815 0 1 1
2131 5 5 0.06513400010000001 55.41363733461392 30.657043338893278 46.685829854340774 0 1 1
2123 5 3 -0.029358 55.539427907623846 29.711364940209197 47.1824626436149 0 1 1
1912 5 3 -0.037388 60.513569603526435 32.79583931109182 45.826613344657844 0 1 1
1911 5 3 0.044175 59.27245163677037 32.3087559957282 46.346109295796 0 1 1
1910 5 9 -0.2015900002 59.29107862383279 31.440005226798682 47.483461811190004 0 1 1
1899 5 12 -0.2708210001 57.36357938593481 32.11577579671384 48.6512245431841 0 1 1
1898 5 1 0.2576279998 58.39166733073806 31.39586586873476 48.551738767153516 0 1 1
1896 5 1 0.2575330002 60.25500962295618 30.466933077367962 47.78705035273528 0 1 1
2124 5 3 -0.037388 56.60523743930574 28.93202694401349 46.67718333470238 0 1 1
1286 3 4 0.047031 61.13776425751159 35.60676782479217 46.23315226426297 0 1 0
1272 3 2 0.015325 60.861372299396024 36.12781226262694 47.13211239189475 0 1 0
1908 5 5 0.06592500010000001 57.13993421352527 30.42801368732193 51.022087025849245 0 1 1
1900 5 3 0.053259 58.802778651922424 30.399562374183095 49.572857175314084 0 1 1
1895 5 3 0.050832 59.90622770995405 29.83466553127194 49.087440438554445 0 1 1
1901 5 3 -0.017827 58.10071254986138 30.010271768570135 50.75442191534666 0 1 1
1894 5 3 -0.046212 60.488773697695535 28.764644129339946 49.793327861304554 0 1 1
1270 3 12 -0.271952 60.51640096745362 33.84023476595156 48.86473321091802 0 1 0
1287 3 4 0.047031 59.840734359637175 35.945274322215724 47.31224252728384 0 1 0
1737 4 6 0.033214 57.309948724407796 34.953293026577654 50.37675701412503 0 1 0
1738 4 6 0.033214 58.17438989678769 35.06843718549885 48.82364865152666 0 1 0
1736 4 4 0.047031 59.63536178493004 35.505732279659874 50.67285242750472 0 1 0
1722 4 2 -0.012104 57.739564711992784 35.67924118209653 49.6110209906644 0 1 0
1721 4 2 0.015325 58.88148387760043 36.27370772111135 50.35472779301456 0 1 0
1743 4 5 0.06543099989999999 57.63575341033891 36.18359502907695 46.87910968158408 0 1 0
1892 5 3 0.08280999980000001 58.660048604946105 28.89773083750923 51.41873692486577 0 1 1
1723 4 3 -0.043685 56.75961479166712 36.68090772194499 48.84008773058838 0 1 0
1730 4 3 -0.0261 56.864158871315006 36.77096007069078 47.41247825645264 0 1 0
1735 4 4 0.047031 59.43003204448347 36.92903639396844 49.631965830748726 0 1 0
1728 4 3 0.1014749999 56.114071079704246 37.690678534418154 46.71231902362535 0 1 0
1729 4 13 -0.3582139999 56.11495254275078 37.6951065289339 45.362625673032476 0 1 0
1742 4 8 0.218378 56.88505278192913 37.23481313682209 45.04545364346218 0 1 0
1252 3 3 0.053259 33.95024974353081 36.75725474676711 52.81305830248273 1 1 0
1294 3 5 0.06543099989999999 29.25871415000036 37.10839539612587 44.51369140556606 1 1 0
1061 3 5 0.06592500010000001 35.85634797495873 36.73165333570273 48.28828448313459 1 1 0
1055 3 3 0.053259 33.88515461085469 37.081295996018774 48.91205508886373 1 1 0
1039 3 3 0.050832 32.627173902757285 36.71875984520051 48.76758178229787 1 1 0
1148 3 1 0.2575330002 32.06359159013527 38.94277300416657 45.16548154988161 1 1 0
1149 3 12 -0.270822 31.796499691812787 37.974293661172894 45.87767709496357 1 1 0
1162 3 9 -0.2015900002 31.411343559592066 40.17692272085155 45.168205427803514 1 1 0
1163 3 3 0.044175 30.37639589111418 40.480809049919095 46.0116488055361 1 1 0
1176 3 3 -0.037388 30.54399688856129 40.118089873292206 47.403111661878114 1 1 0
1022 3 9 -0.2015900002 32.668216683378986 38.633708427308754 50.06314287182742 1 1 0
1036 3 1 0.2576279998 34.02676388462757 38.27871691820643 49.743027234953686 1 1 0
1020 3 3 -0.037388 32.92769620754263 40.995254395541465 50.78239758071179 1 1 0
1030 3 5 0.0643810002 33.79462948295439 41.05009150641682 50.063388999624706 1 1 0
1035 3 12 -0.2708210001 35.0258182778019 38.940907069637184 49.926460389056686 1 1 0
1021 3 3 0.044175 32.26611151156047 39.730354980666746 50.88527524057284 1 1 0
1023 3 3 -0.037388 31.08349549903553 39.74815878180587 51.67176225579598 1 1 0
1024 3 3 -0.029358 30.729193630419367 40.90204138687177 52.445833753421255 1 1 0
1037 3 1 0.2575330002 31.791130040450682 37.66171952625235 49.54416950582841 1 1 0
1031 3 5 0.0643810002 30.484037827397767 38.86757967083304 51.74307727360403 1 1 0
1184 3 5 0.0643810002 31.546350695020553 39.77504224331098 47.80172061632212 1 1 0
1038 3 12 -0.270822 30.57897749697963 37.68111111026319 49.623805369716294 1 1 0
919 3 5 0.0643810002 33.70228453823661 41.56311518982206 47.53455120885135 1 1 0
1019 3 3 -0.029358 32.580297897608546 42.17814742088252 51.421840492305506 1 1 0
1029 3 5 0.06513400010000001 33.145565037457175 43.109691535176566 51.37247147249167 1 1 0
918 3 5 0.06513400010000001 32.292619561037064 43.20371121687164 46.411414238034695 1 1 0
906 3 3 -0.029358 33.17782327518951 43.55840982889093 47.0090759308491 1 1 0
907 3 3 -0.037388 34.02056515946189 42.60461863823518 47.57089545598005 1 1 0
2636 6 6 0.033214 30.127942960591714 43.68955846759915 46.91101569634776 1 0 0
908 3 3 0.044175 35.124212823477386 42.94104343800081 48.356699729568916 1 1 0
1183 3 5 0.06513400010000001 29.62584044829628 40.06792349133633 49.381787802773985 1 1 0
2620 6 2 -0.012104 29.185363135478475 44.20404699098977 46.896356251817465 1 0 0
1175 3 3 -0.029358 29.44467676202844 40.275040091902255 48.36964852318726 1 1 0
1164 3 3 -0.037388 29.167448280111355 41.082923097136366 45.6555634165514 1 1 0
1018 3 3 0.0821070002 31.529707453366882 42.044515658390154 52.34666663281297 1 1 0
1260 3 5 0.06592500010000001 36.09291198029386 37.03147062688768 52.49991426511656 1 1 0
910 3 3 -0.037388 35.37767218194985 44.359964099526266 48.535813964480305 1 1 0
924 3 12 -0.2708210001 36.44909041514562 42.56371176379133 50.9038894457595 1 1 0
909 3 9 -0.2015900002 36.06822703773129 41.945392881971394 48.71674115007648 1 1 0
927 3 12 -0.270822 36.10336138210981 40.707898892281506 46.76010781216076 1 1 0
926 3 1 0.2575330002 36.464933994441985 40.95009307268687 47.89251524312883 1 1 0
1182 3 5 0.06513400010000001 28.72771176521054 42.188938189452486 50.29927094311314 1 1 0
1253 3 3 -0.017827 35.21730414553975 37.31821858032859 53.029800604827 1 1 0
1257 3 5 0.0650900002 35.30806113552484 41.405520673947116 53.28616179010394 1 1 0
920 3 5 0.0643810002 36.11444113801783 44.724869285103736 49.23811902459121 1 1 0
925 3 1 0.2576279998 36.66617369414702 41.898970046079285 49.96277856446042 1 1 0
1135 3 12 -0.2708210001 36.96018190804969 44.44694667803434 45.82583771225369 1 1 0
905 3 3 0.0821070002 33.542456571690494 44.886543237451306 47.108103675249 1 1 0
911 3 3 -0.029358 34.622637624422254 45.30829027400931 47.8992335644939 1 1 0
1017 3 14 -0.310465 31.128513921933994 43.14524544111389 53.062643298573484 1 1 0
1431 4 8 0.218378 42.751592125967626 39.0179771964883 48.32403239814789 1 1 1
1059 3 5 0.0632240003 39.841167056314625 36.4925996889719 46.98281179416732 1 1 0
1426 4 6 0.033214 41.695964756956435 35.57084829700871 45.788129690373495 1 1 1
1432 4 5 0.06543099989999999 41.94127354738207 37.3540463818751 47.10392884565664 1 1 1
945 3 5 0.0632240003 38.216259946337914 38.949255783341066 47.14580404376229 1 1 0
928 3 3 0.050832 37.51951956956887 40.22081733495715 48.60163504681539 1 1 0
929 3 3 -0.046212 38.38093776233519 39.223823479042736 48.12039802102097 1 1 0
944 3 3 0.053259 37.62217641982319 40.80651174590572 49.875908074925384 1 1 0
946 3 5 0.0650900002 39.9882906191806 37.9224858320723 48.64279974420853 1 1 0
930 3 3 -0.030409 39.279303786414495 38.68003785954148 48.95405680706383 1 1 0
931 3 3 0.08280999980000001 39.50153919103743 39.292312344103685 50.26906791556257 1 1 0
943 3 3 -0.017827 38.667153154336845 40.34657354835096 50.7326838286958 1 1 0
1138 3 12 -0.270822 40.37265251723633 41.67794427680534 47.048078429294414 1 1 0
1137 3 1 0.2575330002 39.41776229074236 42.107934497031145 46.44076609143259 1 1 0
1130 3 5 0.0643810002 39.45270061730573 42.61625263544133 49.10958626400654 1 1 0
1136 3 1 0.2576279998 37.78086015487626 43.540356257746204 45.787054701842855 1 1 0
1122 3 9 -0.2015900002 38.80059225927568 43.28611960704426 46.71900123589167 1 1 0
932 3 14 -0.3104160002 40.60679795491347 38.8121896431131 50.968249346710735 1 1 0
950 3 5 0.06592500010000001 38.91961025874457 40.89743137486815 51.636305799742445 1 1 0
947 3 5 0.0650900002 38.520728433949955 37.259544371135696 51.79498747861322 1 1 0
1120 3 3 -0.037388 39.671921937666305 43.63645588132405 49.00125454851484 1 1 0
1129 3 5 0.06513400010000001 40.39214508964213 44.00176143061744 51.05681009392869 1 1 0
1121 3 3 0.044175 39.21981408960713 44.21650994219213 47.765418964514694 1 1 0
1119 3 3 -0.029358 40.060738021120585 44.4530618265442 50.12749116979224 1 1 0
933 3 3 0.08280999980000001 40.4287215729021 38.278922382131036 52.21150952916756 1 1 0
934 3 3 -0.030409 39.24846751245188 37.563094631939165 52.520795129101025 1 1 0
1127 3 5 0.0643810002 44.749926960829576 44.69637132322871 51.25062834634889 1 1 0
949 3 5 0.06592500010000001 42.20863082040143 39.27322758415164 52.98754927331136 1 1 0
942 3 3 -0.017827 41.30604103393745 38.7319295669122 53.2112393417203 1 1 0
2004 5 5 0.0632240003 46.31168834155615 35.79531305839937 50.237301922613135 0 1 1
2003 5 3 0.053259 45.388686719155125 36.21536055336429 47.025353357904486 0 1 1
366 1 3 -0.017728 52.203869142650134 44.34760650861688 44.90920055960092 0 0 1
1845 5 5 0.0650900002 49.30217976961457 37.09834949495123 47.899489034090465 0 1 1
1966 5 3 0.0821070002 48.044724619079396 41.68888811178902 44.98819259470759 0 1 1
1967 5 3 -0.029358 48.73002592908016 40.46056618438788 44.97762924085438 0 1 1
1987 5 3 0.050832 45.93746319934033 36.50343668212567 48.274186553889486 0 1 1
1983 5 12 -0.2708210001 45.4237447646172 37.37095221565562 44.89274299687973 0 1 1
1979 5 5 0.0643810002 45.38678550532379 40.71980414799824 46.981340259990674 0 1 1
1984 5 1 0.2576279998 45.737096883476354 37.34744368245265 46.09665745885116 0 1 1
1971 5 3 -0.037388 46.33445876920823 40.70461748565927 46.426705617865764 0 1 1
1972 5 3 -0.029358 46.85783892921643 41.87622698677938 45.816698918837794 0 1 1
1968 5 3 -0.037388 48.2456732518567 39.34274491013704 45.71643829666766 0 1 1
1969 5 3 0.044175 47.015451394059056 39.50186574049773 46.344961271058054 0 1 1
1978 5 5 0.0643810002 48.75539575577467 38.385011406123574 45.689245536833766 0 1 1
1970 5 9 -0.2015900002 46.411328961492 38.32950515072859 46.899980029579936 0 1 1
1985 5 1 0.2575330002 46.53637834601399 37.84531174006897 48.19445361342346 0 1 1
1986 5 12 -0.270822 47.0888969974115 38.39477327224379 49.14271446865847 0 1 1
401 1 12 -0.270822 50.47858227299258 41.534338855986334 47.04035787159697 0 0 1
400 1 1 0.257535 50.52204929226592 42.69000064705551 47.421840187973864 0 0 1
419 1 5 0.0632240003 48.34385492659764 41.677072723335485 49.06283925883734 0 0 1
367 1 3 0.046667 52.39485480559962 43.57989984861348 46.03797091120239 0 0 1
403 1 3 -0.046212 48.674921106015915 42.660008075603905 49.24129917172093 0 0 1
368 1 9 -0.2014969998 51.45728062995785 43.677973683362616 47.08274848012784 0 0 1
402 1 3 0.050832 49.75971911266103 43.19956175171938 48.57273247153413 0 0 1
420 1 5 0.0650900002 47.17973391542908 43.088620385949945 50.742778299308156 0 0 1
404 1 3 -0.030409 48.01317772157061 43.46273517327151 50.19897185029868 0 0 1
1101 3 12 -0.2708210001 45.59248935663376 43.367382061837446 53.07070862096117 1 1 0
418 1 3 0.053259 50.244322226667165 44.44476844451092 48.886597242403454 0 0 1
1281 3 3 -0.0261 61.46762974818044 37.65251282901694 44.309585517267976 0 1 0
2619 6 2 0.015325 28.536127554692875 44.358658869764135 48.291583405108774 1 0 0
2635 6 6 0.033214 28.603191574863366 43.508654316835674 46.21488705116946 1 0 0
2633 6 4 0.047031 61.29366188965504 43.27934639954594 48.49081162676569 0 0 0
1166 3 3 0.0821070002 61.3375521158636 40.798921954058365 47.93319111711915 0 1 0
370 1 3 0.040792 54.572803016441576 42.78788382330754 45.276362251358805 0 0 1
1275 3 3 -0.0561990001 59.45793676082685 38.73984759545824 45.08742320341886 0 1 0
1720 4 10 -0.3110300001 58.45601719078938 37.0932987711073 51.57399254143574 0 1 0
371 1 1 0.2430250001 56.01650102915192 42.334754308410886 45.58241669073849 0 0 1
1739 4 5 0.062665 55.69378356698808 37.47470394623171 50.563523798128706 0 1 0
1273 3 2 -0.012104 60.96141705941666 37.624210395299656 46.793842855833965 0 1 0
1724 4 3 -0.0561990001 55.86244152507072 37.56649801939115 49.51038572381931 0 1 0
1725 4 3 -0.029102 54.98232558562148 38.30332237778997 48.77824698457793 0 1 0
1740 4 5 0.0651460002 54.26250650887768 38.875858318136665 49.31909416852096 0 1 0
1727 4 13 -0.358222 54.16502103411587 39.228955606338715 46.773162338729335 0 1 0
1726 4 3 0.101217 55.11377025281074 38.43701988625371 47.41059065425572 0 1 0
1741 4 8 0.218378 54.37207865436564 39.16967092273501 45.77514691602083 0 1 0
1719 4 12 -0.271952 60.64366087138609 37.76155599530394 52.01603547597832 0 1 0
369 1 3 -0.027289 53.5434136518935 42.811382182851986 46.18649547925745 0 0 1
386 1 5 0.0651200002 53.702373788117534 42.23072380634761 47.128621562593445 0 0 1
1290 3 5 0.062665 58.80759450382861 39.143884242515185 45.843510530186634 0 1 0
1274 3 3 -0.043685 60.60920227334924 37.9992472177492 45.39096061215591 0 1 0
1289 3 6 0.033214 60.40959723317306 38.24546812904807 47.494429151531094 0 1 0
1288 3 6 0.033214 28.8348989681831 37.96962110568765 46.992679926625954 1 1 0
1178 3 5 0.06513400010000001 60.169826044750295 41.33225920955719 46.21817802681846 0 1 0
1165 3 3 -0.029358 61.17345099107423 41.112558464125456 46.57237849964858 0 1 0
388 1 4 0.047031 57.411594759439424 41.49763365131663 48.48989361345566 0 0 1
389 1 4 0.047031 58.17895203865637 41.555912810598144 46.76077696840142 0 0 1
1179 3 5 0.06513400010000001 58.34134161980502 39.75090841729812 50.06720210774044 0 1 0
374 1 2 0.015325 57.56755753067899 42.068681698679455 47.539851690539486 0 0 1
1167 3 14 -0.310465 60.192386875006434 40.747940792691566 48.68814243225622 0 1 0
1169 3 3 -0.029358 58.92319246215625 40.47842540217908 50.71193679554861 0 1 0
1168 3 3 0.0821070002 60.02069425107612 41.025902445068816 50.01936456277083 0 1 0
1174 3 3 -0.029358 60.90250089317344 41.85586012945101 50.76450546635452 0 1 0
1170 3 3 -0.037388 58.549287356360246 40.90640160758309 51.97002826979667 0 1 0
1173 3 3 -0.037388 60.47680676607213 42.2410409381464 52.040666777521196 0 1 0
373 1 10 -0.3110300001 56.2606570608054 42.14814378026017 46.918347800378186 0 0 1
387 1 7 0.1496919999 55.48641103828115 42.32188289821518 47.559384661939326 0 0 1
391 1 6 0.033214 59.04563802065972 43.371126919001576 48.49488351628224 0 0 1
375 1 2 -0.012104 58.1344911050185 43.50351840738795 47.84223169261516 0 0 1
396 1 5 0.06543099989999999 55.94590976992942 42.808473386058665 49.635599684038894 0 0 1
1180 3 5 0.0643810002 57.737639949988406 40.45198287477022 52.49744343947903 0 1 0
1171 3 3 0.044175 59.32978846358026 41.84517833816005 52.67327033985244 0 1 0
1181 3 5 0.0643810002 61.145306797518344 42.96013710904887 52.50670306395265 0 1 0
383 1 3 -0.0261 56.014635336941865 43.87677112245956 49.40016056506206 0 0 1
382 1 13 -0.3582139999 53.9479754625295 44.43203455863691 50.68016852162121 0 0 1
395 1 8 0.218378 53.72923583899914 43.55203353364324 50.49877382722753 0 0 1
376 1 3 -0.043685 57.03194141159602 44.400077611659626 48.58059388863133 0 0 1
381 1 3 0.1014749999 55.06163910956564 44.811757788876406 49.96084720545224 0 0 1
390 1 6 0.033214 58.60204206285442 43.95885294710128 46.9532708508663 0 0 1
1718 4 1 0.2430250001 59.4427778210007 37.74758571549198 52.34395488148073 0 1 0
785 2 5 0.0643810002 59.65283108148859 44.72408373643644 45.22865127527016 0 0 1
2642 6 5 0.0651200002 29.937607690714408 45.43669180519806 53.128173355373264 1 0 0
2618 6 10 -0.3110300001 29.487988315145426 44.864404167318206 49.31027986493615 1 0 0
904 3 14 -0.310465 32.86750617223347 45.81739575241377 46.36781653346641 1 1 0
902 3 3 -0.029401 33.093534133012284 47.35647891237906 44.58520979986833 1 1 0
2623 6 3 -0.029102 29.72457829616926 47.914288093278 45.68103404722855 1 0 0
2632 6 7 0.1496919999 30.468218213461515 44.915412695747065 49.08979844147015 1 0 0
2638 6 5 0.0651460002 29.776812173391836 48.92084731222855 46.03156269659818 1 0 0
921 3 5 0.06513400010000001 34.87644177356902 46.35162783378401 47.957448541572376 1 1 0
2616 6 1 0.2430250001 29.2263955031844 45.34432775682505 50.5500170197154 1 0 0
917 3 5 0.06513400010000001 32.59312399086634 48.06290929574156 45.18746346290452 1 1 0
2631 6 5 0.0651200002 31.171511052590386 46.88251681657837 49.2902918689491 1 0 0
903 3 3 0.0821059998 33.21135294272953 46.0436971285489 45.027302657233236 1 1 0
2614 6 3 -0.027289 31.28906992210775 46.73669385324304 50.37065776876062 1 0 0
2612 6 3 0.046667 32.45715907328329 47.362683607962964 50.89899724100775 1 0 0
2615 6 3 0.040792 30.405441947982162 46.06053092170587 51.20700166333542 1 0 0
2611 6 3 -0.017728 32.65896210093344 47.38303905617729 52.23948292767352 1 0 0
2646 6 12 -0.270822 35.43035588024338 47.22338307751452 50.84343823708246 1 0 0
2613 6 9 -0.2014969998 33.37501021190855 47.98999908033764 50.051853623281815 1 0 0
2644 6 1 0.2576290002 32.99590213844349 48.994723710849826 49.0805180031721 1 0 0
2643 6 12 -0.2708210001 31.852030134824613 49.33954607385788 48.76010316450471 1 0 0
2669 6 5 0.06592500010000001 33.58101560601091 51.14429553416156 47.372397018452986 1 0 0
2406 6 5 0.0632240003 32.04803526924548 51.639414937133246 50.39777258848234 1 0 0
2396 6 12 -0.270822 34.78047600800505 51.7600123121465 51.79733090787176 1 0 0
2405 6 5 0.0650900002 29.614186946861146 50.8844000471812 50.6939743679837 1 0 0
2393 6 3 -0.046212 31.65998527783712 51.14572976739785 51.335168133201655 1 0 0
757 2 5 0.0632240003 29.992628248162685 51.10500261374632 48.65340627738188 1 0 1
2392 6 3 -0.030409 30.332569344909402 50.85454184271689 51.5516019460019 1 0 0
2395 6 1 0.2575330002 34.00588706653531 51.19153586630668 52.591040027839895 1 0 0
2394 6 3 0.050832 32.55169283655032 50.84586512292298 52.38744013218816 1 0 0
2663 6 3 0.053259 34.25558771515273 49.42911880814967 48.47622738291419 1 0 0
2662 6 3 -0.017827 34.434616890184536 50.590903970031924 47.72435717139953 1 0 0
2645 6 1 0.257535 34.77404635571798 47.98301019361438 50.16063793902041 1 0 0
2647 6 3 0.050832 35.277869499765856 48.82560291102814 49.0701457780627 1 0 0
2650 6 3 0.08280999980000001 35.70465218090764 51.057451504371755 47.538053342902295 1 0 0
2629 6 3 -0.027289 30.638743028326424 46.021894418218025 52.58242941004 1 0 0
2391 6 3 0.08280999980000001 29.898532163711177 50.38813248147342 52.77223475086923 1 0 0
2621 6 3 -0.043685 29.402034589649755 45.49591388749472 46.115486358480595 1 0 0
2622 6 3 -0.0561990001 29.471779102438877 46.80568496822826 46.56601940895577 1 0 0
741 2 3 -0.046212 29.263545547438348 51.852980131546865 48.2785470856773 1 0 1
2637 6 5 0.062665 29.282412476117454 46.9633041919024 47.64495194300531 1 0 0
581 2 5 0.0643810002 31.04447872963412 51.791280007667645 45.236797576576365 1 0 1
2630 6 5 0.0663080001 33.53814880042769 47.87402148764848 52.69504035594872 1 0 0
2610 6 3 0.046667 31.763605113254144 46.712228892189216 53.11838625556366 1 0 0
580 2 5 0.06513400010000001 28.878633359259716 51.264860384919245 45.36458598466109 1 0 1
2648 6 3 -0.046212 36.58622117415713 49.27314582305556 48.90036953630337 1 0 0
2649 6 3 -0.030409 36.81371506992443 50.35033027433468 48.05747294931409 1 0 0
2424 6 5 0.0643810002 36.66256498352373 50.554634925023706 52.74075800798767 1 0 0
2651 6 14 -0.3104160002 35.836624195651204 52.33367595189291 46.97554533170045 1 0 0
740 2 3 0.050832 29.65911808643366 53.08347509923213 47.76665273102328 1 0 1
739 2 12 -0.270822 32.016846851595474 53.12108058138463 47.97599941694513 1 0 1
2668 6 5 0.06592500010000001 34.30987482746167 53.15604703717263 49.06325047696394 1 0 0
675 2 3 -0.029358 42.2275695629097 47.75440042319073 45.39113255689906 1 0 1
2664 6 5 0.0632240003 37.44146175489665 48.841324458117086 49.38974229852336 1 0 0
456 2 3 0.0821070002 40.402910129383415 52.08150875170688 45.05753601226087 1 0 1
472 2 5 0.06513400010000001 38.40054087310506 51.541331088417266 45.592477116981485 1 0 1
2665 6 5 0.0650900002 37.804045108747296 50.790556006515445 47.95532846152152 1 0 0
686 2 12 -0.2708210001 44.15776752149129 51.619073193874286 45.77771996850109 1 0 1
1118 3 3 0.0821070002 40.24905391963836 45.813378184650574 49.91147320816046 1 1 0
1128 3 5 0.06513400010000001 42.77481000796223 45.13840597008149 50.022526537146646 1 1 0
1117 3 14 -0.310465 40.696155505056915 46.65693115706253 50.93096002840847 1 1 0
682 2 5 0.0643810002 42.3451258507962 49.969389984139674 45.62265264475753 1 0 1
668 2 14 -0.310465 41.960094882649905 45.37468975586093 45.72070503558339 1 0 1
669 2 3 0.0821070002 42.69406407288719 46.532010794722396 45.83094518948221 1 0 1
674 2 3 -0.037388 42.690421236852245 48.95314313141908 45.95336959480664 1 0 1
680 2 5 0.06513400010000001 44.04519950122205 45.655122881775 47.12702860210209 1 0 1
670 2 3 -0.029358 43.668226491220636 46.5395149435663 46.781793341617906 1 0 1
672 2 3 0.044175 43.78272310091488 48.92044875920025 46.87286726130742 1 0 1
671 2 3 -0.037388 44.24851247617033 47.670926892877446 47.237833858486646 1 0 1
455 2 14 -0.310465 40.5264618423701 52.898745304053904 46.15946168230384 1 0 1
454 2 3 0.0821059998 40.87278052481149 52.487525170693914 47.41816511002615 1 0 1
468 2 5 0.06513400010000001 40.189661637803866 50.48100660190629 47.29066245266921 1 0 1
453 2 3 -0.029401 40.71834283980803 51.179066914943576 47.90898161657323 1 0 1
673 2 9 -0.2015900002 44.24285768696051 50.086403050758165 47.53639514197933 1 0 1
687 2 1 0.2576279998 44.42499744531145 51.30324921923683 46.92680562199173 1 0 1
1131 3 5 0.0643810002 38.903265932329354 46.16706307170496 46.79476769572241 1 1 0
1123 3 3 -0.037388 39.26466921010696 45.67405279170305 47.640261382449594 1 1 0
1132 3 5 0.06513400010000001 39.75435782354354 47.48796769012643 48.76613713689309 1 1 0
1124 3 3 -0.029358 39.729373443743306 46.392718790839496 48.74601279894103 1 1 0
452 2 3 -0.038738 40.96463008280691 50.82501787323909 49.22672710074857 1 0 1
467 2 5 0.0643380001 40.75352174281184 49.7868917203043 49.59061909597011 1 0 1
451 2 3 0.023437 41.46511249873565 51.76195390549309 50.082377300018436 1 0 1
466 2 7 0.1426590002 41.4608860226144 50.46509751498277 51.72398497284141 1 0 1
1116 3 3 0.0821070002 41.938268981426255 46.52527038495578 51.476564982176534 1 1 0
1115 3 3 -0.029358 42.89722350354016 45.62277960247408 50.99695446588066 1 1 0
450 2 11 -0.3582950001 41.697864328814106 51.42016069973792 51.45005310230263 1 0 1
463 2 3 -0.029401 41.446037929225014 53.47322820879961 48.26538782828639 1 0 1
465 2 7 0.1426590002 41.57945939726126 52.099497749983556 52.2047969762948 1 0 1
464 2 3 -0.038738 41.6300636438075 53.103299997969984 49.58818459141437 1 0 1
688 2 1 0.2575330002 44.38400734580464 50.1918810039149 48.92928709018731 1 0 1
690 2 3 0.050832 44.74525228149231 51.60771409821909 49.143193995819125 1 0 1
689 2 12 -0.270822 44.33228895599633 49.380164699986196 49.83816134305159 1 0 1
706 2 3 0.053259 44.87855904353097 52.26374652522583 47.94907323175467 1 0 1
1114 3 3 -0.037388 44.09951250042009 45.40282044509104 51.73008213909782 1 1 0
681 2 5 0.0643810002 45.12475715641308 47.69417301792758 47.92332522617882 1 0 1
691 2 3 -0.046212 44.896888633933244 52.296805946015084 50.359532880987956 1 0 1
1133 3 5 0.06513400010000001 41.5314817904318 47.89212798503158 53.018473493134685 1 1 0
1125 3 3 -0.029358 42.251775613231246 47.23352164973818 52.64100293572033 1 1 0
1113 3 3 0.044175 44.25754965610435 45.96740597644309 53.00628072267098 1 1 0
474 2 5 0.0643380001 42.06864227120581 53.84048868110949 50.237376255775565 1 0 1
385 1 5 0.0663080001 51.345461939335564 44.97279558767194 44.72513021264804 0 0 1
399 1 1 0.2576290002 51.34270242793096 44.73279656643783 47.99620549972192 0 0 1
144 1 3 0.08280999980000001 53.05420413520639 51.76571910052213 45.681915990552525 0 0 1
440 1 5 0.0643810002 49.40304089838999 51.07180052836468 46.592445289896645 0 0 1
146 1 3 0.08280999980000001 51.78622644976869 49.87010548824626 45.718064852716736 0 0 1
427 1 3 -0.037388 49.19654381524809 52.01827688986129 47.04240526197037 0 0 1
148 1 3 -0.046212 50.63170619330065 47.72545671713558 45.68541772250597 0 0 1
69 1 13 -0.358222 51.236834733804635 48.020189557452184 51.543840103869584 0 0 0
83 1 8 0.218378 51.834952718618986 48.6866584869786 51.12903567028218 0 0 0
161 1 5 0.0632240003 50.37012743199392 46.76571382614612 46.01042181948017 0 0 1
414 1 12 -0.2708210001 47.80670713512045 49.4124373158691 47.50127475559192 0 0 1
423 1 5 0.06592500010000001 47.24546571567815 47.0458085571301 48.96334186842689 0 0 1
416 1 3 -0.017827 47.44241460435369 47.59478820892608 49.85455734330479 0 0 1
413 1 1 0.2576279998 47.792601166184504 49.83692598783237 48.59806424306865 0 0 1
415 1 3 0.053259 47.62245495043477 48.97854358750156 49.77533886606784 0 0 1
145 1 14 -0.3104160002 52.550805378088086 50.80087640384251 46.401502933184105 0 0 1
147 1 3 -0.030409 51.438391242086034 48.64183536109971 46.33474733980972 0 0 1
160 1 5 0.0650900002 51.86571386160106 48.38959057378994 47.25771248489909 0 0 1
407 1 3 0.08280999980000001 47.49791768103159 46.99093999788637 51.15480052664651 0 0 1
408 1 3 -0.030409 47.85145262868594 47.751303051166545 52.230941259755355 0 0 1
424 1 5 0.06592500010000001 49.89307268864475 46.320652891218906 49.873943362616586 0 0 1
417 1 3 -0.017827 49.481251087215355 45.3175933326915 49.68334708597885 0 0 1
405 1 3 0.08280999980000001 48.35637095850772 44.788056649171 50.35296150737158 0 0 1
406 1 14 -0.3104160002 47.67207730871917 45.61338066297455 51.2189180717764 0 0 1
421 1 5 0.0650900002 47.92708501988409 47.26709103111051 53.142496405007094 0 0 1
410 1 3 0.050832 47.88256069819725 49.721704512055325 50.891416436287415 0 0 1
409 1 3 -0.046212 48.010958418180905 49.173114691365356 52.1528117622604 0 0 1
398 1 12 -0.2708210001 52.166237070709194 45.64248288663321 48.13884437004535 0 0 1
425 1 9 -0.2015900002 48.185712279746625 51.090895086576005 49.05889218464816 0 0 1
422 1 5 0.0632240003 48.29249964978676 49.8723895602689 52.90884317055321 0 0 1
411 1 1 0.2575330002 48.209457995184906 51.118359183726064 50.49887319289877 0 0 1
707 2 5 0.0632240003 44.80611421657825 51.687901409461055 51.27681732184688 1 0 1
412 1 12 -0.270822 48.42316249162622 52.02155193713331 51.30741980171479 0 0 1
68 1 3 0.101217 51.14776912749767 48.31984640228541 52.86656926872415 0 0 0
82 1 5 0.0651460002 52.032296709859494 50.315688955216984 52.617350693671 0 0 0
84 1 8 0.218378 50.764324647371296 46.156565151267216 52.49048602623259 0 0 0
426 1 3 0.044175 48.492968147990595 52.17996645777091 48.25671501372902 0 0 1
285 1 5 0.06513400010000001 57.83356220859513 53.40800959991443 44.84067024359072 0 0 1
2617 6 12 -0.271952 61.234798869913575 45.24910105146834 51.168700562718996 0 0 0
377 1 3 -0.0561990001 57.177469485064044 45.80053124154038 48.38924555203681 0 0 1
379 1 3 0.101217 55.235768346753474 46.22351036998627 49.74701365362209 0 0 1
394 1 8 0.218378 53.48950113114175 46.61210173438051 50.537662303521046 0 0 1
392 1 5 0.062665 57.82202156753152 46.183196435299806 47.7292091664377 0 0 1
2390 6 14 -0.3104160002 28.5034542299948 50.17504448112359 52.82962511070405 1 0 0
2634 6 4 0.047031 60.82259131839703 45.08339500324358 48.22972119411803 0 0 0
380 1 13 -0.358222 54.3041211652685 47.090475366072205 50.230842635437845 0 0 1
2404 6 5 0.0650900002 61.53937421412759 47.48738835273463 52.87268246861646 0 0 0
749 2 1 0.2575330002 56.69752654809834 47.24889698391605 45.177026558982604 0 0 1
760 2 5 0.0632240003 55.243859866864575 49.305530068607254 46.67426358475942 0 0 1
747 2 3 -0.046212 56.290981068674014 49.5360941499159 46.55492899792979 0 0 1
753 2 3 0.053259 58.38476833866976 48.824362179150526 45.72992529887043 0 0 1
748 2 3 0.050832 57.0651650257752 48.611364895980444 45.913165258447435 0 0 1
761 2 5 0.06592500010000001 60.10751242437751 50.0667992551828 46.08749950749669 0 0 1
746 2 3 -0.030409 56.87203635989728 50.73155936938685 47.04265938237573 0 0 1
754 2 3 -0.017827 59.028760509237806 49.95391368394023 46.19141260389506 0 0 1
745 2 3 0.08280999980000001 58.26176412651582 50.96617402338285 46.820444541466046 0 0 1
759 2 5 0.0650900002 56.327670981757194 51.43812736145811 47.64370569906316 0 0 1
2506 6 5 0.0632240003 59.0241851987275 46.94415282234663 51.59608424862353 0 0 0
2493 6 3 -0.046212 58.39157831564677 47.835821370799906 51.47092942122027 0 0 0
744 2 14 -0.3104160002 58.7920918487619 52.104592657453324 47.37957241257219 0 0 1
2505 6 5 0.0650900002 59.57397981589686 48.96428517924416 50.03923398492951 0 0 0
2492 6 3 -0.030409 58.73368895455013 49.03691456977482 50.698574176019974 0 0 0
393 1 5 0.0651460002 56.34539747458799 47.74253362430458 48.685592310549424 0 0 1
758 2 5 0.0650900002 60.65473828934259 50.51754445081315 48.48588022822145 0 0 1
742 2 3 -0.030409 61.02264628070546 51.465092037676676 48.08025455785878 0 0 1
2490 6 14 -0.3104160002 58.3380251807796 51.31523540154514 49.920234869789084 0 0 0
378 1 3 -0.029102 56.22305274921143 46.69854726857139 48.95656612180032 0 0 1
2489 6 3 0.08280999980000001 58.54834523025757 52.59181828528784 50.45467260180223 0 0 0
2491 6 3 0.08280999980000001 57.9638949029147 50.21952253500123 50.65753125534819 0 0 0
2501 6 3 -0.017827 59.530497977752546 52.79940618982921 51.40833940409383 0 0 0
2508 6 5 0.06592500010000001 60.16178088093051 52.06039773738081 51.78142142463512 0 0 0
743 2 3 0.08280999980000001 60.144140297858534 52.38382736662411 47.56518282227877 0 0 1
2500 6 3 -0.017827 56.84780433900124 50.25857689527787 51.522357344503725 0 0 0
2494 6 3 0.050832 57.20614260321442 47.922579071623126 52.17708597476077 0 0 0
2507 6 5 0.06592500010000001 56.26020828690096 51.14285833382671 51.64536767895214 0 0 0
2499 6 3 0.053259 56.44049538606966 49.09324438811515 52.25211741218931 0 0 0
2092 5 3 0.08280999980000001 29.113227755918587 59.951773131706695 44.65083853742793 1 0 1
729 2 5 0.06513400010000001 36.77431575778607 60.5181266605843 45.24337868782774 1 0 1
718 2 14 -0.310465 35.05369028010079 58.490065960544584 45.42473219983034 1 0 1
1616 4 14 -0.310465 34.05505641801731 28.5764939879983 51.06482178796789 1 1 0
1301 3 3 -0.046212 32.95958236835497 61.13627929060897 48.117848880072415 1 0 0
1302 3 3 -0.030409 34.27295312511245 60.605460532496025 48.048729696349966 1 0 0
1317 3 5 0.0632240003 32.124917222737814 60.50588257450502 48.17176306718799 1 0 0
717 2 3 0.0821070002 36.402635715515245 58.43037163527767 45.63297926719223 1 0 1
1613 4 3 -0.037388 30.632016939833548 61.19675966844842 51.98457578687043 1 0 0
1614 4 3 -0.029358 31.914941277467758 61.03103139126047 51.40363095141176 1 0 0
2106 5 5 0.0650900002 30.486853069364734 59.26559155997775 46.15378596155295 1 0 1
724 2 3 -0.037388 31.925502135952524 56.51551772350048 45.534538310054856 1 0 1
719 2 3 0.0821070002 34.03397894636946 57.65111403715377 45.84236637042564 1 0 1
722 2 3 0.044175 31.97944829427896 55.80459747376749 46.760081630033596 1 0 1
720 2 3 -0.029358 34.16047286089329 56.81924066576301 47.055392734543744 1 0 1
721 2 3 -0.037388 33.16647292337737 55.9296437068048 47.457800987947834 1 0 1
723 2 9 -0.2015900002 30.853950050104995 54.95151321715074 47.11107409652391 1 0 1
737 2 1 0.2576279998 29.55555892604021 55.29822493665756 46.88947138302876 1 0 1
1318 3 5 0.0650900002 34.48243929642759 59.5445419326843 47.99718120571444 1 0 0
734 2 5 0.06513400010000001 36.378246785536234 56.23574574496962 46.03607403323206 1 0 1
2659 6 12 -0.2708210001 34.1305877490555 54.52286879702034 51.63590527999227 1 0 0
738 2 1 0.2575330002 30.999223153830652 53.666589531086316 47.5601002175947 1 0 1
2652 6 3 0.08280999980000001 36.131179395870575 53.31404606536402 47.852934798482096 1 0 0
2661 6 3 -0.017827 35.29749473701623 53.62183521111743 48.92138700611347 1 0 0
2658 6 1 0.2576279998 35.231586325260736 54.92334736545229 51.1692072643082 1 0 0
730 2 5 0.06513400010000001 35.026555908370085 56.94156480685558 47.680405893781774 1 0 1
731 2 5 0.0643810002 33.3334798900608 55.36470077224743 48.34143151851033 1 0 1
1627 4 5 0.06513400010000001 32.22164314439256 60.14747465641858 50.8919182565576 1 0 0
2660 6 3 0.053259 35.81878529356528 54.457141916803934 49.93152999268952 1 0 0
1626 4 5 0.0643810002 29.881745022422322 60.431483749735925 51.97202988433134 1 0 0
2670 6 9 -0.2015900002 36.11026663233899 55.80015952632316 51.701707006704424 1 0 0
726 2 3 -0.029358 36.982305876174294 57.1871542164213 46.035469331566006 1 0 1
2655 6 3 0.050832 37.04940894130975 55.015004442058085 49.706641610700956 1 0 0
2656 6 1 0.2575330002 37.27527740196332 55.92476285536067 50.949854937112505 1 0 0
736 2 12 -0.2708210001 29.12211223416031 56.41667916568956 46.670424046054904 1 0 1
1623 4 3 -0.029358 35.459711218450295 60.64252924941981 52.684690745144955 1 0 0
2093 5 3 -0.030409 29.481472079703003 59.454002349150585 45.86605744375794 1 0 1
2653 6 3 -0.030409 37.414808910332304 53.945442468447155 47.646735462178775 1 0 0
2657 6 12 -0.270822 38.24502039553136 56.60143647716731 51.22644038001661 1 0 0
756 2 3 0.053259 28.784041016573774 54.01844621176107 47.24871410633881 1 0 1
2685 6 5 0.0643810002 33.89127290978599 56.85821228202251 52.725118580040835 1 0 0
716 2 3 -0.029358 37.226243975708954 59.57566180424797 45.56293461477862 1 0 1
710 2 5 0.0632240003 44.38720920233594 57.8134163566169 45.171166445535754 1 0 1
699 2 1 0.2575330002 41.66382799193278 58.12558246614999 45.67513224899432 1 0 1
728 2 5 0.0643810002 39.328130260509994 60.251811590128916 45.628379054397996 1 0 1
715 2 3 -0.037388 38.6811809156579 59.428230374075795 45.80096154216454 1 0 1
714 2 3 0.044175 39.179286503512266 58.176818459546595 46.21713095310275 1 0 1
1305 3 3 0.08280999980000001 37.49474000479023 61.05029654953587 49.12070161284696 1 0 0
1308 3 3 0.050832 39.67245022155002 61.278617258877134 50.8619646329783 1 0 0
1304 3 14 -0.3104160002 36.62069233327231 60.892280841140035 48.134091787023266 1 0 0
1864 5 3 0.101217 43.76515172239567 61.20221402976976 46.56922904487005 0 0 1
1880 5 8 0.218378 41.50760742422143 61.10549051523873 46.15821709188381 0 0 1
697 2 3 -0.046212 44.1252841619733 57.46619487637541 46.108161667549524 1 0 1
2666 6 5 0.0650900002 38.04694134913104 53.66886151126219 46.77722083058026 1 0 0
2654 6 3 -0.046212 37.904741232487844 54.7493790191114 48.644545329653766 1 0 0
473 2 5 0.06513400010000001 41.73905623126751 54.44386350921933 47.80574575897522 1 0 1
698 2 3 0.050832 42.80508037164651 57.585954083371405 46.43711188569743 1 0 1
1319 3 5 0.0650900002 36.83420997344726 59.315562792866174 50.30083025790384 1 0 0
712 2 5 0.06592500010000001 45.39312598301977 54.16765684115561 47.00667179652369 1 0 1
1867 5 13 -0.3582139999 41.47689214056527 61.035441613842025 47.15458046260484 0 0 1
1306 3 3 -0.030409 37.60543774681801 60.10005660210535 50.185479332459636 1 0 0
1866 5 3 0.1014749999 42.776169160981695 60.88812535605733 47.48421415451125 0 0 1
705 2 3 -0.017827 45.1869509939245 53.68214418449328 47.94777677368144 1 0 1
1873 5 4 0.047031 43.98291013872296 60.90915450269756 51.5199270217773 0 0 1
704 2 3 -0.017827 43.16426452751033 56.587435354053305 48.66729650474971 1 0 1
727 2 3 -0.037388 38.320528156168464 57.06077492006243 46.311689471804485 1 0 1
735 2 5 0.0643810002 38.70394303225123 56.09187264187783 46.53176012735905 1 0 1
713 2 9 -0.2015900002 40.558656333188395 57.96374014272456 46.5292831067573 1 0 1
701 2 1 0.2576279998 40.91411973144839 57.474914293187524 47.77551945311036 1 0 1
702 2 12 -0.2708210001 40.13890957392626 57.24074520343869 48.76331193857129 1 0 1
1881 5 5 0.06543099989999999 42.34791062751554 59.913966885415824 49.33683677978563 0 0 1
1876 5 6 0.033214 43.978175531520336 58.523285285662205 50.58692414334901 0 0 1
1868 5 3 -0.0261 43.16443050301933 60.25713332747968 48.69269635703983 0 0 1
703 2 3 0.053259 42.34435238065336 57.21286622542335 47.703525921098134 1 0 1
695 2 3 0.08280999980000001 44.57685000135861 56.51241153798432 48.30131455549194 1 0 1
711 2 5 0.06592500010000001 42.801671465192506 56.297584753447225 49.63346911613385 1 0 1
2667 6 5 0.0632240003 38.87862358869314 55.15786998184399 48.61946589810951 1 0 0
1320 3 5 0.0632240003 39.014679683974364 59.32150484727705 51.63830825825316 1 0 0
1307 3 3 -0.046212 38.76264946799162 60.16490248850213 50.99340293945866 1 0 0
1310 3 12 -0.270822 41.557454038846004 61.00399664884712 52.443175731390774 1 0 0
696 2 3 -0.030409 45.037351458572154 56.95223026381668 47.026185187796095 1 0 1
1861 5 3 -0.043685 44.48515018495158 60.008628799287465 49.027455848190165 0 0 1
447 1 5 0.06513400010000001 50.358106492924094 57.93921255248961 45.44623408789805 0 0 1
430 1 14 -0.310465 49.97728230519105 55.474471288540244 46.20525058086041 0 0 1
1853 5 9 -0.2014969998 52.07532365213601 28.624707668628997 52.52908739963622 0 1 1
428 1 3 -0.029358 49.65838777733417 53.11054660634497 46.32819369871564 0 0 1
143 1 3 -0.030409 52.875691452555955 53.09983165419537 46.108451195135835 0 0 1
1863 5 3 -0.029102 45.08774496073183 60.81331680835051 46.813415728420125 0 0 1
693 2 3 0.08280999980000001 45.2914597177905 54.38385882390314 49.15162979600866 1 0 1
694 2 14 -0.3104160002 45.411207934925585 55.79319248832206 49.1136663060074 1 0 1
1860 5 2 -0.012104 44.796675847666805 59.258227875468705 50.405925796180114 0 0 1
1874 5 4 0.047031 44.8843012957912 59.71939367225542 52.471120112804925 0 0 1
1859 5 2 0.015325 44.89955423851519 60.29379104880888 51.58575793736882 0 0 1
429 1 3 0.0821070002 49.435281208499234 54.389092841069726 46.84676169824826 0 0 1
142 1 3 -0.046212 53.216022932296525 54.15803055448131 45.22246544762677 0 0 1
238 1 1 0.2576279998 48.22608553018867 60.126569531814496 45.398211007919656 0 0 1
158 1 5 0.0632240003 53.135833166766744 55.19651162546955 45.499475086365706 0 0 1
448 1 5 0.06513400010000001 48.619155442153144 55.5506096462633 48.440149539921336 0 0 1
438 1 3 -0.029358 48.74202628896213 54.57252288098314 48.073149339397105 0 0 1
1877 5 5 0.062665 46.43490850431178 59.90494047176429 48.31595414484825 0 0 1
259 1 5 0.0650900002 51.04559337629326 60.39220058348508 49.95341222867029 0 0 1
1854 5 3 -0.027289 49.630064308029915 61.38564926888169 52.479033855717375 0 0 1
159 1 5 0.0650900002 52.28072851161268 53.28936615699523 46.99253330436743 0 0 1
709 2 5 0.0650900002 46.057319989202156 56.749633983047325 46.74833689035933 1 0 1
439 1 3 -0.037388 48.25609474832949 53.49086807433729 48.770587304756276 0 0 1
1858 5 10 -0.3110300001 46.1265174923043 61.09358797228714 51.491118995655974 0 0 1
1875 5 6 0.033214 45.70115834374775 58.70992491469221 50.469272078712436 0 0 1
1862 5 3 -0.0561990001 45.43818975975644 60.2961683995117 48.085109206000375 0 0 1
257 1 3 0.053259 48.894073526290825 60.11437494467518 46.72517650796752 0 0 1
1856 5 1 0.2430250001 47.27820949028893 60.716540530834834 52.12223081235506 0 0 1
243 1 3 -0.030409 50.4569191346373 60.32139582226502 49.08510028301682 0 0 1
449 1 5 0.0643810002 47.9064217791568 53.52285259332221 49.78748724947542 0 0 1
244 1 3 0.08280999980000001 49.75436916553698 59.11496265454318 48.80436158961207 0 0 1
262 1 5 0.06592500010000001 52.171451799456214 58.747827482767924 48.20897722583858 0 0 1
255 1 3 -0.017827 52.12253224712984 57.78971364678327 48.70441099341787 0 0 1
263 1 5 0.06592500010000001 48.23497388080967 58.14702471644499 47.64973308074088 0 0 1
256 1 3 -0.017827 48.845190540631165 59.11483363788159 47.72786324419637 0 0 1
246 1 3 0.08280999980000001 51.050723432371115 57.32741072922349 49.42255011826835 0 0 1
245 1 14 -0.3104160002 49.89443991929295 58.07970573104313 49.662961304227295 0 0 1
247 1 3 -0.030409 51.011604990446536 55.98369259238817 49.842228062053294 0 0 1
248 1 3 -0.046212 52.00317507130303 55.055747479255935 49.38416778840267 0 0 1
692 2 3 -0.030409 45.18598620923057 53.64871076895558 50.35923290343429 1 0 1
708 2 5 0.0650900002 45.35754285806398 54.176817642550276 51.31624322615865 1 0 1
260 1 5 0.0650900002 50.13934732797172 55.7209484532424 50.36075341106314 0 0 1
261 1 5 0.0632240003 52.01356556181793 53.99104679242056 49.6778557329749 0 0 1
1886 5 12 -0.270822 51.771837356365175 59.440260641739 52.15218865995152 0 0 1
254 1 3 0.053259 53.16976057538733 56.93032575903493 48.393082934942356 0 0 1
249 1 3 0.050832 53.10962270055353 55.549681245575215 48.668863751937096 0 0 1
1857 5 12 -0.271952 47.403724631603275 59.73133359170984 52.82820918727471 0 0 1
1885 5 1 0.257535 52.48114542395179 60.44596467951065 52.32165470805592 0 0 1
2099 5 12 -0.2708210001 57.714675841101894 60.09953486777336 44.55776554235058 0 0 1
2101 5 3 -0.017827 60.89274408012976 60.20515980392021 44.31369953669942 0 0 1
268 1 3 0.0821070002 58.443130334135546 55.4062350122272 45.0162431006147 0 0 1
1907 5 5 0.0632240003 61.278910094434664 61.217648135600925 49.39516334593327 0 0 1
280 1 5 0.06513400010000001 58.89271284127197 57.41646466665412 45.26791536793294 0 0 1
2107 5 5 0.0632240003 28.87821360883721 59.439470241638965 47.95997341753436 1 0 1
2094 5 3 -0.046212 28.539262339521244 59.54863703981569 46.90747366453461 1 0 1
1893 5 3 -0.030409 59.81230197831516 61.38883382786676 50.89450033370771 0 0 1
1891 5 14 -0.3104160002 57.99349092823358 61.48579784533256 52.55412081514101 0 0 1
2113 5 3 -0.029358 55.287937154873234 61.313752038553986 48.985269880320445 0 0 1
1890 5 3 0.08280999980000001 56.63457085569962 61.16990042572583 52.58871171417775 0 0 1
2504 6 5 0.0650900002 57.017095622688885 53.5393299927994 49.294647413452786 0 0 0
2488 6 3 -0.030409 57.737446017895515 53.695884616472426 50.04447629059075 0 0 0
2126 5 5 0.06513400010000001 54.712067723078164 60.94641048285261 49.804964801474824 0 0 1
2502 6 3 0.053259 59.59023065387868 54.07619909347876 52.03811875795399 0 0 0
277 1 3 -0.029358 57.57379818438902 54.34594524407669 45.19497925830373 0 0 1
267 1 3 -0.029358 58.2024548557866 56.64690369919961 45.52458055999503 0 0 1
2111 5 3 0.044175 57.04120405868933 60.96054147209634 47.35853944556269 0 0 1
2100 5 3 0.053259 59.99486316297814 60.0662443971963 45.37925850220752 0 0 1
2098 5 1 0.2576279998 58.53284480474288 60.25062200056033 45.42698384941342 0 0 1
1906 5 5 0.0650900002 60.152728683091084 60.442867255061955 51.354911704562596 0 0 1
2487 6 3 -0.046212 57.91725080188301 54.96739131933703 50.66417361155885 0 0 0
1887 5 3 0.050832 53.94492321647264 60.47010412843517 52.424596143092195 0 0 1
1889 5 3 -0.030409 56.25936185259238 59.86983950049262 52.33817856807599 0 0 1
1888 5 3 -0.046212 54.91518303733898 59.51704697573406 52.18856239664727 0 0 1
1904 5 5 0.0632240003 54.60962693505238 58.45226441781165 51.91386251310381 0 0 1
251 1 12 -0.270822 54.76658221256375 53.83433786989549 48.412750555251094 0 0 1
286 1 5 0.0643810002 55.936473097315286 53.67174782664205 46.285043062867906 0 0 1
755 2 3 -0.017827 60.57946721259978 53.69721297330804 47.22504033535556 0 0 1
252 1 1 0.2576279998 54.30720387965162 57.14398534031932 47.58566344069465 0 0 1
250 1 1 0.2575330002 54.33485269163161 54.9115456801214 48.13321765167162 0 0 1
253 1 12 -0.2708210001 54.74696644912654 58.21630487440376 47.207762369467495 0 0 1
264 1 9 -0.2015900002 54.99540737709831 55.93891688833013 47.37599068935229 0 0 1
2110 5 9 -0.2015900002 58.15898543129357 60.18925548519768 46.823532830546355 0 0 1
2095 5 3 0.050832 60.330284305865405 59.75843969036974 46.66596614608987 0 0 1
762 2 5 0.06592500010000001 59.796026932958185 54.46252502226115 46.92736469183224 0 0 1
2096 5 1 0.2575330002 59.241752166234875 59.77467913527894 47.55547080641395 0 0 1
278 1 3 -0.037388 56.45823407183917 54.544453002534176 46.01218416396047 0 0 1
265 1 3 0.044175 56.21886197855795 55.7860684178447 46.6004139972753 0 0 1
266 1 3 -0.037388 57.12322447565812 56.87495044828179 46.3504250039462 0 0 1
279 1 5 0.0643810002 57.06496838349199 57.859471320634114 46.82512749114183 0 0 1
2112 5 3 -0.037388 56.35103619606639 60.54648930507163 48.50477024383186 0 0 1
2503 6 5 0.0632240003 57.40029547126919 55.81863798715422 50.32181667527138 0 0 0
2486 6 3 0.050832 58.79757810205152 55.082547668821334 51.704981852682806 0 0 0
1905 5 5 0.0650900002 56.98688021938973 59.14307270985326 52.1652067487926 0 0 1
2125 5 5 0.0643810002 56.58734375357841 59.599727482577634 48.98289966380061 0 0 1
2097 5 12 -0.270822 59.18923474961483 59.38431208642599 48.7156192562247 0 0 1
2484 6 1 0.2575330002 59.322303850669016 56.31204630967497 52.34378289178124 0 0 0
2485 6 12 -0.270822 58.9464526824991 57.49607545997248 52.10776726958041 0 0 0
2469 6 9 -0.2015900002 60.24770097962153 55.92685522523417 53.31815240124067 0 0 0
1249 3 12 -0.270822 30.48134098691994 36.35479235140724 53.20172710345998 1 1 0
1505 4 5 0.0632240003 29.744467140233343 32.716745653024184 53.98158217424162 1 1 0
1487 4 12 -0.270822 32.719112160791745 32.94364165081285 54.200079255502494 1 1 0
1480 4 5 0.0643810002 34.9097355035597 33.633136204019586 53.783047816391054 1 1 0
1486 4 1 0.2575330002 32.32297477154991 33.83842513206117 54.93565070657539 1 1 0
1489 4 3 -0.046212 29.703680581691795 33.52765771400585 54.72650286896713 1 1 0
1364 4 7 0.1426590002 34.23312657407921 29.275732629039762 54.57843482478601 1 1 0
1348 4 11 -0.3582950001 34.64805461831934 29.985255391037526 55.18218481363438 1 1 0
1472 4 3 -0.037388 35.38243002662718 34.07114277483234 54.69508889135295 1 1 0
1488 4 3 0.050832 30.877455585648065 34.12606167623558 55.19064737771323 1 1 0
1355 4 3 -0.029358 29.84983413092356 33.34447185076667 60.50785893602159 1 1 0
1372 4 5 0.0643380001 35.15868733729835 31.91225434797694 56.884218200165755 1 1 0
1371 4 5 0.06513400010000001 33.510028251945236 33.16922406782839 58.22319250026686 1 1 0
1705 4 5 0.0632240003 33.86257280206977 34.47048488481647 60.29538786132652 1 1 0
1354 4 3 0.0821070002 30.992618128903793 32.662915665804356 59.94003859320426 1 1 0
1360 4 3 -0.029358 32.09546301873611 32.329302566579614 60.755458897674345 1 1 0
1479 4 5 0.0643810002 34.78274240821408 35.87235598175942 57.64477116782014 1 1 0
1353 4 14 -0.310465 30.91582418923131 32.21978528498332 58.61503504575391 1 1 0
1370 4 5 0.06513400010000001 32.99739872579763 31.819449399661266 60.36934979564896 1 1 0
1471 4 9 -0.2015900002 33.152742459230296 34.7942742260756 55.623575860694 1 1 0
1470 4 3 0.044175 34.60098099428162 34.77649743657184 55.696343483522085 1 1 0
1504 4 3 0.053259 30.845329670307205 35.27401081521614 56.01209599431968 1 1 0
1352 4 3 0.0821059998 31.850070388335187 31.789390362762145 57.689966860301894 1 1 0
1361 4 3 -0.029401 33.16056974431455 32.23159751430847 57.667289273526876 1 1 0
1351 4 3 -0.029401 31.489397856818613 30.750556494138703 56.744639137285915 1 1 0
1362 4 3 -0.038738 34.130844754525185 31.608903131325583 56.833250977895716 1 1 0
2446 6 12 -0.270822 34.25038074852153 29.710986383229727 59.14893320916404 1 1 0
1349 4 3 0.023437 33.751098136934814 30.64659459437693 55.951147180815994 1 1 0
1350 4 3 -0.038738 32.411784984326324 30.21177687535031 55.86180037893756 1 1 0
1365 4 5 0.0643380001 32.16865719981434 29.44926491692377 55.17374001510183 1 1 0
1366 4 5 0.06513400010000001 30.44039583253751 30.331643262935454 56.729951798459254 1 1 0
2481 6 5 0.0643810002 31.88974777768586 29.29443043633342 58.86776901212765 1 1 0
1469 4 3 -0.037388 35.23321909806563 35.21403520308262 56.878384082619135 1 1 0
1689 4 3 -0.046212 33.56628094995662 35.17127837309347 61.00174974739771 1 1 0
1485 4 1 0.2576279998 32.28617188812183 35.74009263274674 56.27579387632652 1 1 0
1503 4 3 -0.017827 29.524053069501054 35.69355390119919 56.415319117546396 1 1 0
1484 4 12 -0.2708210001 32.61326510203242 36.679720231502934 56.91031442686959 1 1 0
1690 4 3 -0.030409 32.6330540095158 36.14524694495903 60.73478146708311 1 1 0
1706 4 5 0.0650900002 32.11157690853316 36.24663350350756 59.83591212023611 1 1 0
1510 4 5 0.06592500010000001 29.502421423002293 36.510733529691855 57.05876936030588 1 1 0
1367 4 5 0.06513400010000001 29.011928242486277 33.587035084114504 59.88945027181607 1 1 0
1363 4 7 0.1426590002 35.58664370379565 29.98224167434816 55.48126088792305 1 1 0
1584 4 12 -0.2708210001 29.70157488753088 29.768691042003333 61.204390072512 1 1 0
1490 4 3 -0.030409 61.529358822440535 33.99514844911398 55.06956293021253 0 1 0
1491 4 3 0.08280999980000001 61.43310461561005 35.07571097786731 56.000254881282956 0 1 0
1599 4 1 0.2576279998 28.6951819721178 28.91856402908383 54.27482258504979 1 1 0
1585 4 1 0.2576279998 29.16949110516922 28.79054942349126 60.861769956729674 1 1 0
2456 6 5 0.0632240003 36.70589792528175 30.376395869661966 60.67986110766299 1 1 0
2443 6 3 -0.046212 36.74404402443609 29.371263089340516 60.91392226177754 1 1 0
2681 6 3 -0.038738 36.86045570882098 28.546166259565055 57.39458204835968 1 1 0
2691 6 5 0.0643380001 36.53477027942078 29.573183621925423 57.3058015197572 1 1 0
1509 4 5 0.06592500010000001 61.22021443121997 35.80324383930146 58.81248989459891 0 1 0
2445 6 1 0.2575330002 34.58448317195974 28.659216291652974 59.76242421003508 1 1 0
2480 6 5 0.06513400010000001 29.658643816444638 28.637714427641058 58.15472540307941 1 1 0
2444 6 3 0.050832 35.838328752109156 61.55480638801761 60.48505473657214 1 0 0
1449 4 1 0.2576279998 42.065082281629785 34.8836837719829 28.573301582976278 1 1 1
1649 4 1 0.2576279998 41.924457342436426 31.02254382504792 28.55828155530963 1 1 1
2442 6 3 -0.030409 37.82122341220677 28.967896855909316 28.626835459043228 1 1 1
1468 4 3 -0.029358 36.63613304160617 34.91783479117232 57.04118106899524 1 1 0
1620 4 3 0.044175 37.449746109285456 28.580409656458365 53.47413852516063 1 1 0
1650 4 12 -0.2708210001 40.7223071045001 30.832870988656413 28.56355112695252 1 1 1
1473 4 3 -0.029358 36.71705770190559 33.65275958233931 54.90479234038534 1 1 0
1065 3 3 -0.029358 41.21939835644993 33.301445261314385 53.99521204119432 1 1 0
1078 3 5 0.06513400010000001 40.737682532411 32.9362440605427 54.84778418004112 1 1 0
1481 4 5 0.06513400010000001 37.18299150928227 32.99911166749396 54.231474619557495 1 1 0
1467 4 3 0.0821070002 37.331615468653915 34.06637185361052 56.063638389724105 1 1 0
1478 4 5 0.06513400010000001 37.14237295675315 35.259321207851265 57.92855638896656 1 1 0
1634 4 12 -0.2708210001 38.653944433237065 30.952355725769696 54.54015744666138 1 1 0
1466 4 14 -0.310465 38.60080908698721 33.6954879282989 56.30963769047353 1 1 0
1482 4 5 0.06513400010000001 38.16532027619779 33.07792229087465 58.920309791740905 1 1 0
2689 6 7 0.1426590002 38.951281511785446 30.135487373706162 58.36130690409185 1 1 0
1476 4 5 0.0643810002 42.63679988941323 34.91073027506731 57.90986104411765 1 1 0
1461 4 9 -0.2015900002 42.33351657433478 34.27892997689415 60.47406529217608 1 1 0
1462 4 3 0.044175 41.3748994647744 34.05201647122566 59.423525638652606 1 1 0
1463 4 3 -0.037388 41.61374233126488 34.56936232312655 58.115746562402975 1 1 0
1483 4 5 0.0643810002 39.78151344986155 33.33468580998799 60.67089563828824 1 1 0
1475 4 3 -0.037388 40.05232177543711 33.57536936617903 59.66450347695869 1 1 0
1464 4 3 -0.029358 40.74876207977087 34.379288472306 57.08922414850676 1 1 0
1474 4 3 -0.029358 39.11275407574213 33.45786027363615 58.66055257038738 1 1 0
1465 4 3 0.0821070002 39.46475357046582 33.84111975763775 57.38451589294084 1 1 0
1447 4 1 0.2575330002 43.67982298010498 33.97099345277815 60.320438078574355 1 1 0
1477 4 5 0.06513400010000001 40.9422751239869 34.74723071223411 56.11873444154065 1 1 0
1660 4 5 0.06592500010000001 41.595701561362596 31.2150775383283 56.19877640226306 1 1 0
1635 4 1 0.2576279998 39.156399216906834 29.8536939157661 54.652852207105276 1 1 0
2680 6 11 -0.3582950001 39.07188378275048 29.14932558023827 58.246343305349676 1 1 0
2690 6 7 0.1426590002 39.835952546522975 28.837557183295008 58.79319149934098 1 1 0
1646 4 3 0.050832 44.214053372826 30.924790230150514 61.17248944949854 1 1 0
1066 3 3 0.0821070002 42.580220436711855 33.48700177186653 53.8850764455952 1 1 0
1067 3 14 -0.310465 43.39162581526024 33.35139972753238 54.99203450126722 1 1 0
1082 3 5 0.06513400010000001 43.497596379536134 36.00221758171474 54.40204534766019 1 1 0
1074 3 3 -0.029358 44.31377552411419 35.604963419726836 55.006405428304376 1 1 0
1651 4 3 0.053259 42.97991149524839 30.901044749084384 60.58345521407027 1 1 0
1653 4 3 -0.017827 41.65044657034423 30.14397480018996 55.99383582402822 1 1 0
1068 3 3 0.0821070002 44.360458768244406 34.22349942242283 55.37887767910079 1 1 0
1652 4 3 -0.017827 42.78797835694597 30.64044536355793 59.192838560739304 1 1 0
1643 4 3 0.08280999980000001 43.8825913424948 30.285907960437036 58.41237238272126 1 1 0
1642 4 14 -0.3104160002 43.83391767917925 30.042829668636738 57.05678293387047 1 1 0
2679 6 3 0.023437 38.11117852751558 61.32096665246456 57.87997206300619 1 0 0
1659 4 5 0.06592500010000001 41.859292430597534 30.591570586634 58.70691050697791 1 1 0
1654 4 3 0.053259 40.48333749936088 29.412878252236837 55.37585809450037 1 1 0
1641 4 3 0.08280999980000001 42.78238336766783 29.39115841694367 56.446541810174644 1 1 0
1346 3 5 0.06513400010000001 44.419297547946854 31.209073960344025 53.83950240601621 1 1 0
1446 4 3 0.050832 44.35955140851149 34.376848211136384 28.547582930907872 1 1 1
1448 4 12 -0.270822 44.24709162567479 33.40356608687797 59.3668968773798 1 1 0
1069 3 3 -0.029358 45.28780407014555 33.828630813651394 56.370832565201624 1 1 0
1329 3 3 0.0821059998 47.026309133392104 31.609119732613962 53.589575568634864 1 1 0
1330 3 3 -0.029401 47.6010064677658 32.75788429422406 54.11715443257685 1 1 0
1345 3 5 0.06513400010000001 46.58666146709771 29.504564255958947 53.87140328795233 1 1 0
1335 3 3 -0.029401 47.05728134064394 30.368452817595116 54.26233413845443 1 1 0
1331 3 3 -0.038738 48.32935457560065 32.62102776362172 55.312449571183905 1 1 0
1341 3 5 0.0643380001 48.768360203614094 33.53812229398183 55.73217060437695 1 1 0
1759 4 12 -0.270822 52.836391869780925 29.754368491682058 60.4903867710711 0 1 0
1079 3 5 0.06513400010000001 45.292944041232616 32.84047893952749 56.752858688568075 1 1 0
1458 4 5 0.0632240003 46.4948513164573 33.66798085837221 28.487797426592905 1 1 1
1334 3 3 -0.038738 47.82890620419795 30.175854288557087 55.38631872423454 1 1 0
1332 3 3 0.023437 48.49337599227634 31.293914488825067 55.93239017124637 1 1 0
1343 3 7 0.1426590002 49.68434727040905 32.139867638018316 57.291155216540744 1 1 0
1333 3 11 -0.3582950001 49.15299763385708 31.26405265982724 57.15344258014444 1 1 0
1768 4 5 0.0650900002 49.79149029428471 33.79489862225996 58.943688328292794 0 1 0
1755 4 3 -0.030409 50.83531217376894 33.60991176177106 59.16426751128722 0 1 0
1769 4 5 0.0632240003 50.560205813059504 31.44206623594288 59.509920088258234 0 1 0
1756 4 3 -0.046212 51.27747619328309 32.30715871614254 59.46526231037491 0 1 0
1754 4 3 0.08280999980000001 51.77969398689828 34.64126776013893 59.103239633398545 0 1 0
1757 4 3 0.050832 52.610817131314626 32.10494876208292 59.823526491542125 0 1 0
1658 4 5 0.0632240003 46.287538913467614 30.459467635212214 60.989783213219525 1 1 0
1645 4 3 -0.046212 45.36502537970767 30.597988385071883 60.41449465751308 1 1 0
1644 4 3 -0.030409 45.20063564934411 30.30920078094074 59.00650293708165 1 1 0
1657 4 5 0.0650900002 45.997628677515735 29.889334859350885 58.40753257731785 1 1 0
1070 3 3 -0.037388 46.25525702742678 34.75837649015943 56.8110170220549 1 1 0
1080 3 5 0.0643810002 46.869355437242675 34.522296871922116 57.69068311744854 1 1 0
1344 3 5 0.0643380001 47.78025022293398 29.248893225114337 55.95587080153088 1 1 0
1342 3 7 0.1426590002 49.414308275736424 30.335747129761256 57.4403003251182 1 1 0
1771 4 5 0.06592500010000001 53.19528300936483 35.53845153598016 56.675440041960684 0 1 0
1763 4 3 -0.017827 53.10645173534728 34.41195542972045 59.62048891857081 0 1 0
1758 4 1 0.2575330002 53.29844204051136 30.852465383422967 60.28973927451982 0 1 0
1762 4 3 0.053259 53.50140317374925 33.13539419877493 59.89043397673777 0 1 0
1884 5 1 0.2576290002 53.07826147976019 29.458234062249556 52.90146714210648 0 1 1
1883 5 12 -0.2708210001 52.968340713044924 30.60327827292865 53.32433064886798 0 1 1
1902 5 3 -0.017827 55.648532950438806 29.02638820030479 52.821580132131146 0 1 1
1734 4 7 0.1496919999 57.57127838210176 36.80215906767634 52.06199302041506 0 1 0
1903 5 3 0.053259 54.275654057529906 28.690385407544497 52.711637265333934 0 1 1
1909 5 5 0.06592500010000001 56.0100628133023 30.02364898729217 53.01197961798232 0 1 1
1608 4 5 0.0632240003 59.060618532258005 32.408761357577255 53.86183148443375 0 1 0
1761 4 12 -0.2708210001 55.758179785413645 33.312035342391624 60.37187473032121 0 1 0
1601 4 3 0.053259 60.615165753651 29.612811209136076 54.84407590154642 0 1 0
1596 4 3 0.050832 60.351659124920005 30.716220083092534 54.07966182068252 0 1 0
1610 4 5 0.06592500010000001 60.642496090958645 30.565909556304412 59.216493363789986 0 1 0
1603 4 3 -0.017827 60.24689136586761 29.511117153715066 59.30917884994936 0 1 0
1770 4 5 0.06592500010000001 53.83953403374516 35.20299423027428 59.66841518085181 0 1 0
1506 4 5 0.0650900002 60.58013620049633 33.64767271948327 54.553009472553796 0 1 0
1492 4 14 -0.3104160002 60.17791935075829 35.61639321846743 56.18411221372103 0 1 0
1497 4 1 0.2575330002 57.424037152930595 36.86887651738072 60.94229305661635 0 1 0
1499 4 1 0.2576279998 59.73797971203267 36.55701235912832 61.03357736926159 0 1 0
1772 4 9 -0.2015900002 54.636660362028906 31.268879954285634 60.63879077093077 0 1 0
1595 4 3 -0.046212 59.35001993252799 31.58672974656614 54.52630513855763 0 1 0
1760 4 1 0.2576279998 54.752325710997695 32.5920739289223 60.34936011265888 0 1 0
1594 4 3 -0.030409 58.57932137391987 31.297307684039147 55.722223160614625 0 1 0
1607 4 5 0.0650900002 57.82039012146603 31.931450984430796 56.06378098503489 0 1 0
1508 4 5 0.0632240003 56.26180241978106 36.23030813837958 58.36519494550666 0 1 0
1507 4 5 0.0650900002 57.50982942126076 35.41594411396311 56.401147172958396 0 1 0
1593 4 3 0.08280999980000001 59.04898792490602 30.282653506395928 56.56631080142441 0 1 0
1592 4 14 -0.3104160002 58.43899695195974 30.023160269589034 57.81194322808054 0 1 0
1602 4 3 -0.017827 59.96324618211587 29.364601459723147 56.01906523797997 0 1 0
1496 4 3 0.050832 57.912315845244734 36.41053005736424 59.606498181336896 0 1 0
1495 4 3 -0.046212 57.31247292599023 36.091153596956865 58.42806585357454 0 1 0
1494 4 3 -0.030409 58.04482321968457 35.66467690122029 57.30885643226814 0 1 0
1501 4 3 0.053259 59.32333721492936 36.27732388015749 59.684751918056726 0 1 0
1493 4 3 0.08280999980000001 59.48714001999791 35.772821735812265 57.365072855504295 0 1 0
1502 4 3 -0.017827 60.17105038231133 35.95725689737747 58.59242889701501 0 1 0
1774 4 3 -0.037388 55.88007993798075 29.17322726050323 60.83120658983255 0 1 0
1591 4 3 0.08280999980000001 59.062109054316686 29.123396121946705 58.59401950822786 0 1 0
1787 4 5 0.0643810002 55.34190987620029 28.696786547169847 59.97339391498343 0 1 0
1604 4 3 0.053259 60.98981134217122 28.63141760399129 60.09347382819145 0 1 0
1745 4 12 -0.2708210001 55.52708864033355 36.51750437643715 54.998731190274725 0 1 0
1609 4 5 0.06592500010000001 60.32555456046316 28.5375820314991 56.63611691168281 0 1 0
1010 3 5 0.06592500010000001 34.83001273618311 41.957936946653874 61.536630118281934 1 1 0
1003 3 3 -0.017827 33.8158558209535 41.69247380901155 61.503296724291324 1 1 0
1032 3 5 0.06513400010000001 29.87058310944389 40.84729117126263 53.09648765790398 1 1 0
1709 4 5 0.06592500010000001 28.96538636232062 38.57469587619418 60.98822392103132 1 1 0
1247 3 3 0.050832 32.75584394064755 37.14283070058158 53.392354860300955 1 1 0
1002 3 3 0.053259 32.90414103220097 42.13177697745099 60.57169283582009 1 1 0
997 3 3 0.050832 31.523801858673874 41.832120769318934 60.61114748081452 1 1 0
1244 3 3 0.08280999980000001 35.21696830986471 38.451457565338856 53.860378954067414 1 1 0
1028 3 5 0.06513400010000001 33.425493556659646 42.48806024277191 54.0975319032439 1 1 0
1246 3 3 -0.046212 32.69226763943112 38.19758395673221 54.27028523491846 1 1 0
1245 3 3 -0.030409 33.9883564944197 38.91948544175315 54.46035046281506 1 1 0
1259 3 5 0.0632240003 31.797697879178017 38.54322679234504 54.75012571667857 1 1 0
1258 3 5 0.0650900002 33.9554012026271 39.82433995325174 55.12395623183358 1 1 0
1016 3 3 0.0821070002 31.40382638108941 43.31580903409547 54.37737272628639 1 1 0
1256 3 5 0.0632240003 35.555621600411456 43.623804821543274 54.38281003233902 1 1 0
1693 4 3 0.08280999980000001 30.9869683538493 38.54759680558894 60.30118942082237 1 1 0
1707 4 5 0.0650900002 32.97765135327071 38.61326492324538 59.31314744091067 1 1 0
1702 4 3 -0.017827 29.62576726269481 38.7201993542281 60.17296102242179 1 1 0
1694 4 3 -0.030409 31.87462235791344 38.72193754723265 59.20170372443201 1 1 0
1695 4 3 -0.046212 31.433511582186657 39.14937645650416 57.933361976255306 1 1 0
1708 4 5 0.0632240003 32.087639840400676 39.45255919849061 57.15672401942439 1 1 0
1696 4 3 0.050832 30.033144463081154 39.15841533894433 57.83761752603554 1 1 0
1027 3 5 0.0643810002 33.75200867296087 42.34486511674353 56.594132616169404 1 1 0
1698 4 12 -0.270822 29.6297157846267 39.53715237758249 55.43137459281201 1 1 0
1015 3 3 -0.029358 32.65528590330785 42.84564338791211 54.81069041677743 1 1 0
1014 3 3 -0.037388 32.87378056972393 42.74580378820466 56.18342966334562 1 1 0
998 3 1 0.2575330002 31.014688503656142 42.263028599329914 59.307778945296896 1 1 0
1012 3 9 -0.2015900002 31.999878576791065 42.71249969848603 58.51569874643806 1 1 0
1000 3 1 0.2576279998 33.247878724131446 42.740303174832725 59.25413274729205 1 1 0
1013 3 3 0.044175 31.854756135571876 43.040424246646964 57.12134688600075 1 1 0
1001 3 12 -0.2708210001 34.38749553971199 42.867665840621726 58.85675201785696 1 1 0
1025 3 3 -0.029358 30.40838944034934 43.57920219976639 55.269995428005686 1 1 0
1026 3 3 -0.037388 30.635879201623116 43.528478375152844 56.602327595223954 1 1 0
1034 3 5 0.0643810002 29.743078792985973 43.70883174340624 57.18118545840106 1 1 0
1701 4 3 0.053259 29.13412319467065 38.940851930005536 58.8551520957019 1 1 0
1697 4 1 0.257535 29.213139952626427 39.33137754476192 56.564473981188364 1 1 0
999 3 12 -0.270822 29.836603390243205 42.28156373781161 59.081168248073624 1 1 0
1033 3 5 0.06513400010000001 29.417294934628366 43.996957922201965 54.937223598294054 1 1 0
1241 3 3 -0.030409 35.89130724153264 41.48856186571898 54.19327169304215 1 1 0
1240 3 3 -0.046212 35.96780629622386 42.7517174101868 54.83132552758123 1 1 0
1234 3 5 0.0643810002 31.55975571184935 45.22341184009707 60.0099122889897 1 1 0
1237 3 1 0.2575330002 36.84830785217169 43.96077381773781 56.953162189611405 1 1 0
1238 3 12 -0.270822 36.39611819506614 45.0719306826419 56.79867149164156 1 1 0
955 3 9 -0.2014969998 39.318897215057454 38.89283388556541 61.36487363884822 1 1 0
948 3 5 0.0632240003 38.174324867505085 36.681560845676756 54.23410775822269 1 1 0
1243 3 14 -0.3104160002 36.41284897671417 39.165603344579566 54.07639256754218 1 1 0
1242 3 3 0.08280999980000001 36.42184091861022 40.338425834049026 54.7881851212081 1 1 0
1230 3 5 0.0643810002 36.94575582203175 42.304159508581925 60.64410200468522 1 1 0
986 3 1 0.2576290002 38.06428041367483 38.356105524391154 61.24230330170889 1 1 0
960 3 10 -0.3110300001 44.5340770114008 39.10102138423903 28.509838946400407 1 1 1
956 3 3 -0.027289 41.73132602403368 38.30623603748205 60.972046394442486 1 1 0
958 3 1 0.2430250001 44.273499534476905 38.048904059348665 60.670935159990336 1 1 0
954 3 3 0.046667 40.41539294642793 38.550934547010364 60.4993649300183 1 1 0
1220 3 3 -0.037388 36.986946551272055 43.36060130998486 60.64343665314067 1 1 0
957 3 3 0.040792 42.82380631330014 38.07810781836778 60.093453968628026 1 1 0
1255 3 3 0.053259 37.07362856330021 41.632483370948016 56.640296670421705 1 1 0
1239 3 3 0.050832 36.5941016423867 42.795465649454854 56.04487434892711 1 1 0
1221 3 3 0.044175 37.364953349550376 44.07057713112261 59.43345063207126 1 1 0
1254 3 3 -0.017827 37.08181589381727 40.39124158038748 55.994119615646824 1 1 0
1261 3 5 0.06592500010000001 37.62117270810202 39.54614834935358 56.494073319522954 1 1 0
1236 3 1 0.2576279998 37.706885617288854 42.048663855396455 57.94101157806473 1 1 0
1222 3 9 -0.2015900002 37.49605265270042 43.41314578897084 58.10216552941728 1 1 0
985 3 12 -0.2708210001 37.67644886592292 37.45446323890494 60.48019601938101 1 1 0
938 3 12 -0.270822 38.92539674029297 37.13939333392065 56.954756125094065 1 1 0
1235 3 12 -0.2708210001 38.23787237105935 41.31153435599286 58.779956647279164 1 1 0
935 3 3 -0.046212 39.00811766215646 37.2548757791437 53.88855603876729 1 1 0
936 3 3 0.050832 39.937951119295604 37.701479409833155 54.82469457436858 1 1 0
984 3 5 0.0651200002 43.46163392930207 37.67330384385574 58.07053080237758 1 1 0
937 3 1 0.257535 39.86719567964118 37.537658274974504 56.335581427055935 1 1 0
941 3 3 0.053259 41.074534427899735 38.412344130935544 54.53241546171556 1 1 0
971 3 3 -0.027289 42.61240138626403 37.99144364714251 58.70648031765929 1 1 0
953 3 3 -0.017728 40.28540463761068 38.49426733239014 59.11866534177858 1 1 0
972 3 5 0.0663080001 39.35744987429631 38.8759253491478 58.68969328097492 1 1 0
952 3 3 0.046667 41.31111470447007 38.18540812114847 58.22279732503439 1 1 0
951 3 9 -0.2014969998 40.986591038638316 38.155051759138956 56.843750809189956 1 1 0
939 3 1 0.2576290002 41.75663479678398 38.729965237421496 55.813592931597995 1 1 0
940 3 12 -0.2708210001 42.7677420106239 39.3531929605512 55.92220353483552 1 1 0
1100 3 1 0.2576279998 45.91569361415406 44.29700888432954 53.794100753259244 1 1 0
959 3 12 -0.271952 45.133127896133544 37.27763477809886 60.30429804898915 1 1 0
1753 4 14 -0.3104160002 51.404153577066225 35.8924966331018 58.63029404334485 0 1 0
1081 3 5 0.0643810002 45.19937478815622 37.50175033799468 54.996938967510616 1 1 0
976 3 4 0.047031 46.649786917214854 38.917607268294354 61.262430266968934 1 1 0
1106 3 5 0.0632240003 51.18916069844494 38.188702242118296 55.730581419182315 1 1 0
1073 3 3 -0.037388 45.282170500758504 36.507770744709156 55.40226348075428 1 1 0
1071 3 3 0.044175 46.25293611151057 36.09287018154333 56.32425108190381 1 1 0
1088 3 12 -0.270822 49.11076886819714 36.01607336501691 56.139334632080164 1 1 0
1072 3 9 -0.2015900002 47.198643964983226 37.104322879165935 56.75740172048376 1 1 0
1087 3 1 0.2575330002 48.51719794928314 37.022912143285616 56.51073292312752 1 1 0
1085 3 12 -0.2708210001 45.77322725513034 39.00293627661297 56.974330970219 1 1 0
1110 3 5 0.06592500010000001 47.894397968407674 42.32677811892671 54.37535027903917 1 1 0
1111 3 5 0.06592500010000001 47.47704096532152 41.284702892157455 56.93500553701678 1 1 0
1086 3 1 0.2576279998 46.87859556732969 38.493323708045025 56.96696401031255 1 1 0
1105 3 3 0.053259 48.105666585877 39.27609942159104 56.769458815102254 1 1 0
1104 3 3 -0.017827 48.295713974768184 40.65863097215291 56.67173414168249 1 1 0
1107 3 5 0.0650900002 51.52991207179746 40.6665487383226 55.83105562106908 1 1 0
1767 4 5 0.0650900002 51.791996363327826 38.203396022740705 59.65353233134368 0 1 0
1089 3 3 0.050832 49.12690933190913 38.38193084204343 56.46147257213009 1 1 0
1093 3 14 -0.3104160002 49.810117357175464 42.480073094921615 56.360207936107315 1 1 0
1092 3 3 0.08280999980000001 49.58145471276603 41.16082688501699 56.41429358570233 1 1 0
1090 3 3 -0.046212 50.37843880200017 38.8873985407173 55.986000024317086 1 1 0
1091 3 3 -0.030409 50.62278649375575 40.24098470706625 56.121891723175565 1 1 0
2530 6 5 0.06513400010000001 52.47575268622222 44.80593006170818 55.451755438415404 0 0 0
1752 4 3 0.08280999980000001 52.31755192451997 36.80204515554195 58.184180187285 0 1 0
1751 4 3 -0.030409 52.39392669372423 38.05879163307746 58.78472767204518 0 1 0
1103 3 3 -0.017827 47.97344361373432 43.234610299175344 55.02271047176399 1 1 0
1094 3 3 0.08280999980000001 48.842133703852085 43.446172371841655 56.064855156877684 1 1 0
1102 3 3 0.053259 47.13671687395697 44.28345400745083 54.70978978206025 1 1 0
1498 4 12 -0.270822 56.280253905519125 37.17725256900411 61.20249891070718 0 1 0
1744 4 5 0.0651200002 61.14217030063 38.34081459433311 54.31346516613688 0 1 0
1711 4 9 -0.2014969998 61.00082529023828 39.131525386851436 56.87247794785746 0 1 0
1699 4 1 0.2576290002 60.90279979585101 39.06852821192977 58.329789668379625 0 1 0
1764 4 3 -0.017827 53.223154423682004 36.524566914005796 57.13083247709069 0 1 0
1188 3 12 -0.270822 56.623832462295596 42.74750081210898 53.37848579752033 0 1 0
1765 4 3 0.053259 54.14073948070856 37.4950069216164 56.68092485979202 0 1 0
1746 4 1 0.2576290002 55.264002405710436 37.431884572804044 55.75035410515959 0 1 0
1750 4 3 -0.046212 53.304082785561434 39.05627499451913 58.37639648103625 0 1 0
1766 4 5 0.0632240003 53.45156780510303 39.9730632715497 58.94927837023357 0 1 0
1202 3 3 0.053259 60.88570293507283 44.055912101154945 61.040645245179476 0 1 0
1733 4 5 0.0651200002 56.819302927485495 38.24864596255248 53.52048898936431 0 1 0
1716 4 3 -0.027289 57.70581511319587 38.304999166738355 54.19342286995123 0 1 0
1717 4 3 0.040792 59.078951642512976 38.201355606914035 53.75306662413918 0 1 0
1172 3 9 -0.2015900002 58.841890833019924 42.22772133889254 53.9284666282927 0 1 0
1187 3 1 0.2575330002 57.484028573950454 42.68619784265354 54.160038709977485 0 1 0
1749 4 3 0.050832 54.21997990790346 38.694703514676405 57.35626574219519 0 1 0
1748 4 12 -0.270822 55.64229442731843 40.62683891507683 57.01362053682955 0 1 0
1712 4 3 0.046667 59.81484481309519 38.86166642961034 55.958761374296316 0 1 0
1731 4 3 -0.027289 60.101346345600625 38.46312028084608 54.64982753487661 0 1 0
1747 4 1 0.257535 55.36290153828128 39.476224978862575 56.82660838256797 0 1 0
1713 4 3 -0.017728 58.482521892195535 38.93163417276747 56.3941279190365 0 1 0
1732 4 5 0.0663080001 58.222709502106085 39.22205529768553 57.40451918879329 0 1 0
1714 4 3 0.046667 57.437997426194485 38.68047565268971 55.522152253796506 0 1 0
1715 4 9 -0.2014969998 56.04684967978885 38.58093173057828 55.96800465884453 0 1 0
1700 4 12 -0.2708210001 59.91867273049341 38.99596888041345 59.004126088139266 0 1 0
1194 3 3 0.08280999980000001 58.86316540346542 43.01266919962478 60.50577965707231 0 1 0
1193 3 14 -0.3104160002 57.761381708982256 42.876160994868336 59.77923749833917 0 1 0
1206 3 5 0.0632240003 55.26181259095143 43.51489894525312 55.892017504576785 0 1 0
1207 3 5 0.0650900002 55.436267796852064 43.5601338978929 58.445590919562925 0 1 0
1203 3 3 -0.017827 59.824766868682524 43.91776899953571 60.18784525748643 0 1 0
1211 3 5 0.06592500010000001 59.665923004412605 42.38499345906199 57.93907255541987 0 1 0
1191 3 3 -0.030409 56.34446947943724 43.35935477110887 57.81170212407433 0 1 0
1192 3 3 0.08280999980000001 57.61698024573511 43.100581165786636 58.35912440244295 0 1 0
1185 3 12 -0.2708210001 60.765988065225 41.972897431695124 55.25470962242516 0 1 0
1204 3 3 -0.017827 58.730936101309375 42.73800472491885 57.54883580728508 0 1 0
1186 3 1 0.2576279998 59.57195886996216 42.29419199065873 55.109951657544244 0 1 0
1189 3 3 0.050832 57.33836445486288 43.020779131720964 55.61294666574138 0 1 0
1205 3 3 0.053259 58.58794043919015 42.72495202930814 56.17902441617109 0 1 0
1190 3 3 -0.046212 56.24687722859231 43.413315706299535 56.373488735207054 0 1 0
1210 3 5 0.06592500010000001 59.64546498498109 44.56525205187344 59.30544975979883 0 1 0
526 2 4 0.047031 30.95291870939532 52.67093348052541 28.965472401644266 1 0 1
2602 6 3 0.053259 34.75195132431728 51.31390341915876 28.688022086092932 1 0 1
513 2 2 -0.012104 28.85364671209276 52.412114312585715 29.054479123201627 1 0 1
1200 3 1 0.2576279998 29.000069022084627 44.94393301517917 60.875885334939085 1 1 0
1225 3 3 -0.029358 33.298345478144526 45.553743088338024 61.2052334223021 1 1 0
1226 3 3 -0.037388 31.920828353078097 45.42177022515857 61.012334428597356 1 1 0
1233 3 5 0.06513400010000001 33.94129528352332 45.68194043620397 60.30339258746416 1 1 0
2584 6 1 0.2575330002 33.65577484902224 53.379494539332754 28.769622671885294 1 0 1
2601 6 3 -0.017827 34.87120422805013 50.0005828332757 61.41214901642438 1 0 0
1201 3 12 -0.2708210001 29.119190415287324 45.84808383667006 60.06726624562117 1 1 0
2399 6 3 0.053259 32.06804241257548 50.40850620280965 53.6208758906659 1 0 0
2409 6 9 -0.2015900002 34.2951768002385 50.89418216434869 53.928594347264344 1 0 0
514 2 3 -0.043685 28.6982406064023 51.4985316322482 60.99367544219274 1 0 0
2586 6 3 0.050832 34.11433345936859 52.26820374844874 61.0183610234384 1 0 0
2596 6 12 -0.270822 29.89512011931486 46.94709987091491 55.41782922271473 1 0 0
2595 6 1 0.257535 31.091919983463413 46.94208138631325 55.55626335266617 1 0 0
2594 6 3 0.050832 31.79033987450748 47.09888052142041 56.83666545648197 1 0 0
2609 6 9 -0.2014969998 32.060589267086534 46.787955413319025 54.602504878144764 1 0 0
2606 6 5 0.0632240003 30.264649952321342 47.64702274288138 58.36235180856743 1 0 0
2599 6 3 0.053259 33.17507777615418 46.95162719103199 56.619700773977186 1 0 0
2597 6 1 0.2576290002 33.29878709280456 46.71818263322669 55.17832125522963 1 0 0
2593 6 3 -0.046212 31.305960545756253 47.50483949635539 58.06186127531155 1 0 0
2598 6 12 -0.2708210001 34.32670905360822 46.40998126625925 54.56413865933726 1 0 0
2600 6 3 -0.017827 34.12449691005384 47.23879330633983 57.63660756793098 1 0 0
2607 6 5 0.06592500010000001 35.18177238686498 47.06659910787668 57.45446870400298 1 0 0
2605 6 5 0.0650900002 31.792312895574085 48.23648239442675 59.97478994490176 1 0 0
521 2 3 -0.0261 29.567363002433122 51.50388807231862 59.90388836898309 1 0 0
534 2 5 0.06543099989999999 30.451668322524874 52.20173081299428 59.901965520591375 1 0 0
2592 6 3 -0.030409 32.207406583006886 47.844972852807466 59.0577866064375 1 0 0
519 2 3 0.1014749999 29.44344081058753 50.620010412135464 58.8269941368266 1 0 0
2603 6 5 0.0632240003 33.15765014543167 52.72109042584906 59.19624153809752 1 0 0
2407 6 5 0.06592500010000001 30.221892976968626 49.89854316671129 54.82280565384464 1 0 0
2400 6 3 -0.017827 30.713392853892273 50.259129447471565 53.89027281740418 1 0 0
520 2 13 -0.3582139999 30.26921768061906 50.67162457862555 57.70455926127198 1 0 0
533 2 8 0.218378 31.00896166833101 51.27331436799493 57.91323187271429 1 0 0
2398 6 12 -0.2708210001 33.053949382776416 50.05641204055652 55.76477278020789 1 0 0
2397 6 1 0.2576279998 33.12214305403663 50.471740403544736 54.587501775382606 1 0 0
2431 6 5 0.0643810002 34.89782019688852 51.67736811572894 56.39752916533753 1 0 0
2587 6 3 -0.046212 33.687832638880785 51.96596987922031 59.73586946813772 1 0 0
2591 6 3 0.08280999980000001 33.586902961812555 47.7819162615409 58.87621837123262 1 0 0
2604 6 5 0.0650900002 33.44139016283324 50.38562451237928 58.28163448611943 1 0 0
2588 6 3 -0.030409 33.86648453815834 50.67013097186799 59.21810639863637 1 0 0
2589 6 3 0.08280999980000001 34.41091286301148 49.66909787694223 60.129292204300754 1 0 0
2410 6 3 0.044175 35.64172297745638 51.03084381938672 54.497887742146744 1 0 0
2590 6 14 -0.3104160002 34.44873329385897 48.296935493329144 59.817695410566046 1 0 0
2423 6 3 -0.037388 35.78443789884474 51.40354039492298 55.84837259604203 1 0 0
2266 6 5 0.0643810002 28.862065596424802 53.31771441468648 56.3966211352714 1 0 0
2411 6 3 -0.037388 36.79943721742995 50.760107659860545 53.77126507281933 1 0 0
2422 6 3 -0.029358 37.032176029109486 51.463061400524126 56.47366342136696 1 0 0
2430 6 5 0.06513400010000001 37.004102615137164 51.758192985758484 57.5389911933848 1 0 0
532 2 8 0.218378 28.699899975570773 49.11355498371805 57.065244060516896 1 0 0
1126 3 3 -0.037388 43.321543534317605 46.881355307165876 53.46443403165693 1 1 0
1223 3 3 -0.037388 37.27752462906337 45.51202866730077 59.52166613040157 1 1 0
1224 3 3 -0.029358 36.62963264351847 46.16052589825614 60.63520706584549 1 1 0
1134 3 5 0.0643810002 43.47563546865505 47.343123890590846 54.42498226365274 1 1 0
1232 3 5 0.06513400010000001 36.47751998353036 47.20407688821275 60.53811693121469 1 1 0
2425 6 5 0.06513400010000001 38.95445044872683 50.62104750551488 53.71016865981717 1 0 0
1231 3 5 0.0643810002 37.628569238801965 46.15056879628745 58.7136473539701 1 1 0
2426 6 5 0.06513400010000001 40.81787870461365 50.87448077853989 58.46365869479055 1 0 0
2413 6 3 0.0821070002 38.219724375995014 51.179545504650875 55.71304890036048 1 0 0
2412 6 3 -0.029358 38.113244556677 50.80099658617395 54.365555773962924 1 0 0
2414 6 14 -0.310465 39.45496400102249 51.22891468920925 56.23489837582167 1 0 0
2416 6 3 -0.029358 40.419477843091016 51.87587200761675 58.27867277728065 1 0 0
2415 6 3 0.0821070002 39.6878414993009 52.22799018247086 57.09576589354707 1 0 0
2294 6 5 0.0650900002 37.460100392846286 52.5060702815007 59.822848881122 1 0 0
2427 6 5 0.0643810002 41.36779436044815 52.69840318875601 59.97514847064177 1 0 0
2417 6 3 -0.037388 40.724883863240315 52.91709186469871 59.13700401851355 1 0 0
1112 3 9 -0.2015900002 45.400763065749544 45.56695322183606 53.8291049202798 1 1 0
71 1 13 -0.3582139999 50.31175707805816 46.087324590084435 53.326921919551424 0 0 0
67 1 3 -0.029102 51.50118396616544 49.597704995466145 53.30107927119276 0 0 0
70 1 3 0.1014749999 50.59925261765267 47.378735719673955 53.78094356061483 0 0 0
1108 3 5 0.0650900002 49.56258335786289 44.94120810702453 57.46448566475185 1 1 0
1097 3 3 0.050832 47.11755565180317 45.514193056258996 55.36062507741618 1 1 0
1095 3 3 -0.030409 48.76925377137253 44.68036794217031 56.83321560301012 1 1 0
1096 3 3 -0.046212 47.887150127905045 45.67598888977322 56.485997772184305 1 1 0
2527 6 5 0.0643810002 50.35403686377498 47.78752664654402 61.2157063231314 0 0 0
2517 6 3 -0.037388 51.27866904345086 47.35480610531044 60.90708306195354 0 0 0
2514 6 14 -0.310465 52.45300276454232 45.74786371343285 57.90825378211434 0 0 0
2515 6 3 0.0821070002 52.46088299378475 46.1281712416948 59.246989678193444 0 0 0
1098 3 1 0.2575330002 46.099912021511045 46.36151973556748 54.774975265150545 1 1 0
1099 3 12 -0.270822 45.90649562156852 47.52148867744573 54.93881090804575 1 1 0
1109 3 5 0.0632240003 47.86070103224052 46.60979057488907 57.040212414703376 1 1 0
85 1 5 0.06543099989999999 49.98750490681863 47.069495151734145 55.858913393866914 0 0 0
2526 6 5 0.06513400010000001 50.43981067301163 46.836976632177326 59.10539377486411 0 0 0
72 1 3 -0.0261 50.3992716629097 47.80261644385236 55.1701030882288 0 0 0
65 1 3 -0.043685 50.749303705063554 49.07887734963137 55.5847064870629 0 0 0
59 1 3 0.040792 49.11002132589793 51.798707208258385 61.11427844698068 0 0 0
58 1 3 -0.027289 49.83494908018036 52.941901109610455 60.79147034153493 0 0 0
61 1 12 -0.271952 47.6607827612326 50.14964520406561 60.0692244832245 0 0 0
66 1 3 -0.0561990001 51.38819384204403 49.87850733479769 54.674594837145385 0 0 0
77 1 4 0.047031 48.83383293446926 50.312243712533785 56.96552909378008 0 0 0
60 1 1 0.2430250001 48.67224169808593 50.83684658095011 60.007360388287296 0 0 0
75 1 5 0.0651200002 50.207763379760834 53.090477077971705 59.75575405603735 0 0 0
79 1 6 0.033214 51.464917810007954 50.22307610055302 57.380718412425814 0 0 0
64 1 2 -0.012104 50.77358508209153 49.38572375639676 57.19251089742692 0 0 0
63 1 2 0.015325 49.39496213220412 49.8016444282104 57.7149636510067 0 0 0
62 1 10 -0.3110300001 49.56373306253253 50.68687647960411 58.89478140897146 0 0 0
2516 6 3 -0.029358 51.33651139834599 46.72450661455021 59.667199815579195 0 0 0
78 1 4 0.047031 48.83553850223314 48.86583661726957 57.97567738539668 0 0 0
81 1 5 0.062665 52.02374016709837 50.67993232238135 55.15792897465015 0 0 0
76 1 7 0.1496919999 50.378131813442884 51.260310556587164 58.84248900812328 0 0 0
80 1 6 0.033214 51.2343559077021 48.56880994164233 57.74295949222618 0 0 0
2520 6 3 -0.037388 53.60989073949912 46.710190426343374 61.24249729027032 0 0 0
2365 6 3 0.0821070002 56.21211060676106 49.49772530248022 60.93303409273227 0 0 0
2529 6 5 0.06513400010000001 54.48848772757775 45.49228132817346 59.796710404270684 0 0 0
2522 6 3 -0.029358 53.173223646615895 45.54066480096519 55.69165798429934 0 0 0
2513 6 3 0.0821070002 53.30176036158806 46.24111440326273 56.923194452035126 0 0 0
2521 6 3 -0.029358 53.53746185217757 46.000908169889456 60.09008888645437 0 0 0
515 2 3 -0.0561990001 60.773597413455676 50.512814309889954 61.019604698539084 0 0 0
2496 6 12 -0.270822 56.97941433629023 45.77962042525678 53.25141113298571 0 0 0
2495 6 1 0.2575330002 56.55278135149164 46.932817281058064 53.09377755845934 0 0 0
2531 6 5 0.0643810002 53.69880163481115 45.58113829856873 53.58938030541038 0 0 0
518 2 13 -0.358222 61.27965561504726 48.7989235910922 57.76824521301096 0 0 0
517 2 3 0.101217 61.464974159685454 49.69000521993799 58.858470121294154 0 0 0
2523 6 3 -0.037388 53.87554540898924 45.982489756340634 54.53111737956071 0 0 0
516 2 3 -0.029102 60.62444053096303 49.68445412240642 59.92471506249932 0 0 0
2388 6 3 -0.030409 60.97048434361369 48.01547138261812 53.66638202272915 0 0 0
531 2 5 0.0651460002 59.83363190684331 48.936791200995636 60.01096629769327 0 0 0
2389 6 3 0.08280999980000001 61.005367999247625 49.44658493528477 53.77752043173476 0 0 0
2408 6 5 0.06592500010000001 60.05078716784848 51.21029351089308 54.498826379837496 0 0 0
2401 6 3 -0.017827 60.12946724368241 50.118052331855246 54.59473576829463 0 0 0
2370 6 3 -0.037388 57.58100746962606 48.1097124137642 59.47296000764479 0 0 0
2371 6 3 -0.029358 57.08062541570023 48.44698522693642 60.74958117457018 0 0 0
2366 6 3 -0.029358 55.71550230275398 50.221092618858904 59.862536531791264 0 0 0
2376 6 5 0.06513400010000001 55.0334596794065 51.00186477363297 60.01435481942903 0 0 0
2378 6 5 0.0643810002 58.342328931259416 47.37915621094158 59.31172203373167 0 0 0
2403 6 5 0.0632240003 59.83241986908071 46.273790808841454 54.3035186156864 0 0 0
2525 6 5 0.06513400010000001 54.24595374416701 47.77148402822766 58.038620162898994 0 0 0
2512 6 3 -0.029358 54.150137917572565 47.37360047014192 57.05569607580672 0 0 0
2385 6 12 -0.270822 58.00981440715509 46.47912166520963 56.74979705807506 0 0 0
2387 6 3 -0.046212 60.038651904968155 47.31282847442668 54.52019514859227 0 0 0
2386 6 3 0.050832 59.25927383343033 48.076519501717584 55.46487567717646 0 0 0
2384 6 1 0.2575330002 58.23337204924454 47.628308949703595 56.49531492123026 0 0 0
2509 6 9 -0.2015900002 55.40352354859512 47.56254657811976 53.54182404420723 0 0 0
2510 6 3 0.044175 54.68897374917627 47.133546780453415 54.657891548141315 0 0 0
2511 6 3 -0.037388 54.776625415824945 47.86654445873944 55.88186240885127 0 0 0
2524 6 5 0.0643810002 55.458287383202446 48.73353599598596 55.92942126611326 0 0 0
2368 6 3 0.044175 57.14847871763205 48.89526907744351 58.39596969061455 0 0 0
2367 6 3 -0.037388 56.224429942788696 49.95748119199105 58.5961995939675 0 0 0
2377 6 5 0.0643810002 55.89200896248356 50.71754568141061 57.92347891001067 0 0 0
2497 6 1 0.2576279998 55.2888891590631 48.8612070870966 53.10774523356662 0 0 0
2498 6 12 -0.2708210001 54.50791682841229 49.703465482465845 53.513009130051955 0 0 0
2369 6 9 -0.2015900002 57.83630539843064 48.84654447097077 57.15993007579582 0 0 0
2402 6 3 0.053259 59.359988150974495 49.464056188077016 55.5473423835212 0 0 0
2383 6 1 0.2576279998 58.55272301462655 49.94951767172677 56.64762126566896 0 0 0
2382 6 12 -0.2708210001 58.45988158822033 51.09274818267045 57.04689686134729 0 0 0
2265 6 5 0.06513400010000001 59.61546111421739 53.485272297299204 56.882718400360375 0 0 0
529 2 6 0.033214 28.60378034606444 53.422792956650184 28.796845157405745 1 0 1
2585 6 12 -0.270822 32.88855953409575 54.304662278353106 28.477167342975573 1 0 1
1631 4 5 0.06513400010000001 34.71149083980477 59.90972824242561 52.74432501677603 1 0 0
2692 6 5 0.06513400010000001 35.073455390387096 60.80765851037022 56.67414033497739 1 0 0
2682 6 3 -0.029401 36.03256707139289 60.604114122343205 56.975035697638106 1 0 0
2477 6 5 0.0643810002 29.622363217883436 56.89180372146065 53.61334185326703 1 0 0
1571 4 9 -0.2015900002 29.509659214874727 60.64264106925788 61.29574612839164 1 0 0
2671 6 3 0.044175 35.92453187245723 56.392922610826616 53.01708251715953 1 0 0
2292 6 5 0.0632240003 34.145186104262294 54.222073668618314 54.95523289823828 1 0 0
2672 6 3 -0.037388 34.70582565560724 56.93854133452953 53.406375216951204 1 0 0
2467 6 3 -0.037388 28.934868130351404 57.27121950723768 54.34640913816183 1 0 0
1600 4 12 -0.2708210001 29.367290709332853 61.18351398509013 54.8624545849237 1 0 0
2274 6 12 -0.270822 31.03304373645362 54.43372674794449 55.290704879954205 1 0 0
2255 6 3 0.044175 29.35177001428502 55.117832806236905 57.62084397708359 1 0 0
2273 6 1 0.2575330002 31.497432668066992 54.69767610742686 56.405624909478405 1 0 0
2276 6 3 -0.046212 34.14959190139276 54.58944177992876 55.975172089338606 1 0 0
2256 6 9 -0.2015900002 30.75835898721755 55.068803755024305 57.52723952842301 1 0 0
2275 6 3 0.050832 32.94623202575778 54.862842860809565 56.72458742720084 1 0 0
2291 6 3 0.053259 33.03409463677631 55.21320636519779 58.047107634795275 1 0 0
2272 6 1 0.2576279998 31.644250616891952 55.405508479317035 58.58364674570455 1 0 0
2290 6 3 -0.017827 34.27489491866562 55.26704125369069 58.635866109676456 1 0 0
2271 6 12 -0.2708210001 31.38661248942483 55.79452546326386 59.67623529884531 1 0 0
2297 6 5 0.06592500010000001 34.305277149680364 55.46032302879304 59.7225019768175 1 0 0
2476 6 5 0.06513400010000001 30.429799774435065 58.613218199628214 55.28706279219781 1 0 0
2475 6 5 0.06513400010000001 31.170516349064318 57.76020171122036 57.31102220105454 1 0 0
2459 6 9 -0.2015900002 33.96785851658746 60.543654032995946 59.662372075359215 1 0 0
2460 6 3 0.044175 32.724670163417834 60.33200899502481 58.90443323469515 1 0 0
2473 6 3 -0.037388 31.701866627737438 61.33437136606004 58.74375160575384 1 0 0
2461 6 3 -0.037388 32.459216314556116 59.04426632400887 58.364269125685 1 0 0
2462 6 3 -0.029358 31.245426961273612 58.76170177439215 57.71094360261999 1 0 0
2448 6 12 -0.2708210001 34.302592067476745 58.4582999186371 60.552469871516564 1 0 0
2447 6 1 0.2576279998 34.687217177401905 59.5819950202185 60.30955323433277 1 0 0
2474 6 5 0.0643810002 33.16399118646193 58.168567575966875 58.45668731256488 1 0 0
2686 6 5 0.06513400010000001 33.43152208052697 57.76029059947261 54.90150219970531 1 0 0
2673 6 3 -0.029358 34.445485897508675 57.44656970091309 54.68075316646676 1 0 0
2472 6 3 -0.029358 30.442619685395684 60.981628251117826 58.23558071356477 1 0 0
2463 6 3 0.0821070002 30.22666260338402 59.70516501509909 57.72125111229937 1 0 0
2466 6 3 -0.029358 29.415396217550224 58.21739918172391 55.28446108151127 1 0 0
2464 6 14 -0.310465 28.97735086748182 59.441023840379266 57.3264774761634 1 0 0
2449 6 3 0.053259 35.961978481520745 60.218928211291214 60.77728811699477 1 0 0
2277 6 3 -0.030409 35.386885595087776 54.607315121823866 56.59019067383896 1 0 0
2278 6 3 0.08280999980000001 35.41739122836474 54.94864970917294 57.962327754649934 1 0 0
2465 6 3 0.0821070002 28.58416578488575 58.59736779988957 56.336008451315024 1 0 0
2674 6 3 0.0821070002 35.57019584992805 57.6526974521169 55.49713717341264 1 0 0
2675 6 14 -0.310465 35.48578734170574 58.19083814142641 56.72849487303475 1 0 0
2293 6 5 0.0650900002 36.322732532680845 54.49625877365905 56.057233395037315 1 0 0
2296 6 5 0.06592500010000001 36.191438330936535 56.591380273840066 60.602240270245815 1 0 0
2279 6 14 -0.3104160002 36.569553712785876 54.821230368730106 58.62481943936593 1 0 0
2289 6 3 -0.017827 36.465046488068324 55.611535466692395 60.937145719543835 1 0 0
2267 6 5 0.0643810002 29.401220987542178 56.789421973821746 59.029342990169425 1 0 0
2676 6 3 0.0821059998 36.32472863830698 59.2382888180797 57.16368053196257 1 0 0
2280 6 3 0.08280999980000001 36.79908714426274 54.614371071708874 59.979882193528994 1 0 0
2683 6 3 -0.029358 36.83081145073682 57.14547256459118 55.097772592367654 1 0 0
2684 6 3 -0.037388 37.03651901642563 56.49119521084418 53.898861745471265 1 0 0
2435 6 12 -0.270822 40.40632202507139 53.83493897699595 28.759289407621655 1 0 1
2457 6 5 0.06592500010000001 37.20908738483422 58.66292297132519 61.53398963132436 1 0 0
2450 6 3 -0.017827 37.04143912131963 59.7081539316696 61.45740401085973 1 0 0
2436 6 3 0.050832 40.16586756129992 56.32103811601297 28.935819413055302 1 0 1
1621 4 9 -0.2015900002 38.60975395945043 28.652047970077046 54.26939293480751 1 1 0
2421 6 3 -0.029358 39.26624886728803 53.53270464257234 56.872099705340744 1 0 0
2429 6 5 0.06513400010000001 38.70261733467509 53.67863699503623 55.93805452376449 1 0 0
2281 6 3 -0.030409 37.27236291641828 53.34663796744945 60.43641557177584 1 0 0
2434 6 1 0.2575330002 40.387025874832545 54.92174337170492 61.36903457574424 1 0 0
1622 4 3 -0.037388 36.53477842996278 60.62943084621867 53.54935188086775 1 0 0
1630 4 5 0.0643810002 36.744678149233245 59.80106325542346 54.21881468008952 1 0 0
2694 6 5 0.0643810002 37.99602172277782 56.14582563386646 53.53899014137701 1 0 0
2418 6 3 0.044175 40.283703259001 54.26789077568128 58.95074738530509 1 0 0
1638 4 3 0.050832 40.59421503304329 61.13709226359016 55.32485266108495 1 0 0
1640 4 3 -0.030409 42.82059166308064 61.10424067985306 56.295500025777756 1 0 0
2688 6 5 0.0643380001 39.590459895482454 59.82886669723601 58.23426254096796 1 0 0
2677 6 3 -0.029401 37.622146214839816 58.92781615352861 57.6444687055926 1 0 0
2687 6 5 0.06513400010000001 37.91787804855112 57.85984738223877 57.67860704685319 1 0 0
2693 6 5 0.06513400010000001 37.6896761620732 57.34887158264869 55.68066478405083 1 0 0
2678 6 3 -0.038738 38.53810314451414 59.9679757788585 57.90266248780509 1 0 0
1637 4 12 -0.270822 39.18282429259765 59.45199716513325 54.36304035572908 1 0 0
1636 4 1 0.2575330002 39.37472968843719 60.6292182345439 54.6346895527667 1 0 0
1655 4 5 0.0632240003 41.81909510896392 59.34849443158721 55.51527705036489 1 0 0
1639 4 3 -0.046212 41.715105462813774 60.41306276230143 55.784457879105766 1 0 0
2420 6 3 -0.037388 39.586221643488074 54.52836291759601 57.75104614093721 1 0 0
2451 6 3 -0.017827 39.91544863814232 58.63221211550312 61.2807896790122 1 0 0
2452 6 3 0.053259 40.1253831269465 57.248502740768465 61.037645950843185 1 0 0
2419 6 9 -0.2015900002 40.43416861777384 55.258176568843965 59.997346309744174 1 0 0
2458 6 5 0.06592500010000001 39.822855936572154 59.31481143568925 60.398070904462145 1 0 0
2433 6 1 0.2576279998 40.38732598235376 56.64157519179889 59.760278574592895 1 0 0
2428 6 5 0.0643810002 39.23115822458517 55.446827411581765 57.49910407043862 1 0 0
2432 6 12 -0.2708210001 40.40905720232002 57.18763414112961 58.697145920399834 1 0 0
1656 4 5 0.0650900002 43.75730551145249 60.62923594873067 56.541185552145876 1 0 0
1871 5 5 0.0651200002 49.65245556336077 60.36508636773118 52.98004213709514 0 0 1
57 1 9 -0.2014969998 51.053055614469464 54.95304884316109 61.44371273668533 0 0 0
90 1 12 -0.270822 49.991658644022664 56.03957774924683 59.65028105909083 0 0 0
89 1 1 0.257535 50.967137075198245 55.8622597462452 60.3928527628119 0 0 0
108 1 5 0.0632240003 52.08739216060815 58.09749740173865 58.800236982581396 0 0 0
91 1 3 0.050832 52.183322460192045 56.752300746172175 60.45063066445958 0 0 0
107 1 3 0.053259 53.04137522945086 56.17675046352194 61.37633391261949 0 0 0
92 1 3 -0.046212 52.731892108181896 57.67209933988621 59.56675588371006 0 0 0
2247 6 3 0.023437 56.31887426012382 53.846340339818404 28.709206007844667 0 0 1
2254 6 3 -0.037388 28.501624216519872 54.190662583952104 57.02198232906581 1 0 0
2263 6 5 0.0643380001 54.57418982790078 53.828921027032564 60.60935261563621 0 0 0
2248 6 3 -0.038738 55.62741908350445 54.007932220905246 60.613905956776094 0 0 0
2249 6 3 -0.029401 56.31802686656556 54.44752125636768 59.438369868958816 0 0 0
2253 6 3 -0.029358 60.24503691895774 54.22511173344244 57.24675106244214 0 0 0
2264 6 5 0.06513400010000001 55.77224000284943 54.63890824713525 58.524551282403365 0 0 0
2257 6 3 -0.037388 28.809648836869147 56.12977650873653 58.467932047837785 1 0 0
2483 6 1 0.2576279998 60.51240028689078 54.56625493695296 53.15322905427037 0 0 0
1587 4 12 -0.270822 28.68980312206633 58.51050764046528 60.97141349278186 1 0 0
1586 4 1 0.2575330002 28.579396638876634 59.703471482457985 60.854537141721835 1 0 0
2482 6 12 -0.2708210001 61.31440832128544 53.88777496272819 53.817728776323975 0 0 0
2259 6 3 -0.029401 58.439408065671586 54.33496718800343 60.67648841208175 0 0 0
2250 6 3 0.0821059998 57.750223953284646 54.58442000946007 59.47404784414431 0 0 0
1588 4 3 0.050832 60.61779839708184 60.414754672629115 60.07660501735623 0 0 0
2269 6 5 0.06513400010000001 59.496482684446356 54.45064484315482 60.6734102143714 0 0 0
93 1 3 -0.030409 53.9667139138359 58.1859674310084 59.82825692347527 0 0 0
109 1 5 0.0650900002 54.26613655063733 59.049748063852576 59.18866999158027 0 0 0
2468 6 3 0.044175 60.71610043015835 56.75697276989864 54.37358156918572 0 0 0
106 1 3 -0.017827 54.340868355751354 56.63457459685563 28.509829822758757 0 0 1
110 1 5 0.0650900002 58.5390699448327 57.36898361210237 60.659460601624005 0 0 0
1788 4 5 0.06513400010000001 57.20083075637439 60.59001878904182 61.03139609235565 0 0 0
95 1 14 -0.3104160002 56.11457071884753 58.203508775886945 60.992537196898994 0 0 0
94 1 3 0.08280999980000001 54.818004418301435 57.668624201107775 60.83505192987606 0 0 0
2252 6 3 0.0821070002 59.71784888792291 55.17381701998703 58.10692526352529 0 0 0
2251 6 14 -0.310465 58.3786811652411 55.23558185916336 58.36936183448351 0 0 0
2478 6 5 0.0643810002 58.89536253552123 56.94442382337136 55.406058890805696 0 0 0
2258 6 3 -0.029358 60.61161642124763 56.17769149314803 58.58150448946225 0 0 0
2470 6 3 -0.037388 59.91132935388828 57.235544372146485 55.42716795101 0 0 0
2268 6 5 0.06513400010000001 60.198021546748684 56.933754592662055 59.26678410633469 0 0 0
2471 6 3 -0.029358 60.36668390033742 58.12346323823596 56.403678103952565 0 0 0
2479 6 5 0.06513400010000001 59.66517586253572 58.54761489830521 57.08269801068833 0 0 0
1606 4 5 0.0650900002 57.81307102675382 60.636206768963135 58.153588124178555 0 0 0
1590 4 3 -0.030409 58.74016310423865 60.912139774425825 58.60854018619138 0 0 0
1589 4 3 -0.046212 59.48276729472458 59.92990452936539 59.28645617639682 0 0 0
1605 4 5 0.0632240003 59.21742213825905 58.88898621711193 59.23156622835093 0 0 0

Velocities

1393 -0.00036950163816869324 -0.001271358425563024 0.0031786437156722533
1377 -0.002620644644251433 -0.00302079357847794 0.0014604337441067958
1375 -0.006831605164336652 -0.0067129608482757374 -0.0064212270424955885
1378 -0.004310382131664024 0.0012104631218619456 0.008359294987443432
1394 0.0025366225119446773 -0.024867775426977132 -0.0030547238484908627
1379 0.0006412273259222665 0.0035704136435890112 -0.001691856014899593
1376 -0.003909840974730979 -0.003194322303932312 -0.005898142579120873
1792 0.021869629263646172 0.010441899092688405 0.0149791993507023
1563 0.002296906620882916 -0.00451755717146206 -0.0003034688974269851
1576 0.03319956348229916 0.036369854554232146 0.00026351727865548525
1374 -0.006106733819722857 0.005869015805200678 -0.0041035736605229195
1358 0.004867230663761107 0.003604846228351122 -0.003949434086879082
1671 -0.004678726214434674 0.009043569480654155 0.0009307640807834951
1680 -0.020588164545594 0.004844238398380773 0.018477569369245595
1368 -0.015339048445899273 -0.005497894038608564 -0.026440149395174205
1686 -0.00024219909416345418 -0.004125651336063468 0.0035753472855696512
1357 -0.0009866063063841716 0.007589416997389518 -0.012074867347716973
1369 -0.0076030832104124965 0.01001201653665665 0.006324148913208047
1398 -0.006720715152572678 0.014735626171844755 -0.010815732297616499
1380 -0.0022555600896363125 -0.006107119436000244 -0.004961752850893966
1373 0.005132962283884041 0.00739938729572414 -0.00839785482675676
1688 0.0003457243642057901 -0.0021117607500419954 -0.001746828030413577
1392 0.0012441639622534956 -0.0021696619250402226 -0.008127104630571383
1685 -0.00017269090240551886 -0.0039066878548931865 -0.003996390386010734
1704 -0.0030909267729450993 -0.00017503068437075864 -0.003138251295809885
1395 -0.034016754498125 -0.002048986008910109 -0.008007139063795818
1550 3.301384897651577e-05 -0.003427145955823999 -0.0009333605819083906
1391 -0.0017417969288918333 0.002653519978187925 -0.0014647523178590435
1359 -0.005150862754939054 -0.0027321367240759746 -0.0019349694445837942
1684 0.0030288447619829318 0.004401194711772655 -0.00827503247458088
1782 -0.0006147807620674979 0.0053582962152879 0.0025649065856901535
1687 -0.0044153644370496705 -0.0036399787579002897 -0.00032387182581219184
1577 -0.001389295635508485 0.008753258577566297 -0.01404039907251626
1562 -0.00669988904370921 -0.0035615087769744823 0.0006025009338498904
1356 -0.005084709781662434 -0.004167989522314236 0.007878497568256305
1381 -0.007279051025885516 -0.004328846682933036 0.0008155057426724097
1670 -0.00261660915738829 -0.0039288808630811274 0.0021606283575205405
1672 0.0015906162604227853 0.002672378835428888 0.007251372122223713
1580 -0.001836795115262773 0.005614264574344182 -0.006439517309360626
310 0.01738630899501933 -0.01710853329157525 -0.010408166083767793
1564 0.002342855601005554 -0.0016929877152323026 0.0018954653899097985
1679 0.010103361839836787 -0.008445273472226178 -0.010934160363876386
1669 0.0010414179231290983 0.0036849533756893337 0.009551112226202554
1681 0.007320224587799788 0.015124052022388389 0.013596135664190516
1673 -0.001955087899327385 0.006364636350079381 -0.005225562375795017
1667 -0.00237260410263377 0.0018528722271139223 -0.0049247614289236385
1668 0.0020239131936241805 -0.001741652701294799 0.0015476470077193548
1682 -0.0008084406075878986 -0.023351634861621 -0.003861732800895397
1674 0.002385836732910875 -0.00028754675655687283 0.0030146766869181634
1665 -0.011659189631444692 -0.001312912264709848 -0.0030345725012345314
1666 0.007028278133886064 0.0017081734552548515 -0.009884316667445337
1678 -0.011067939426746883 0.011817572632308775 0.018869514736000903
1662 0.006883443851794386 -0.0017593660812339352 0.0017931158557603138
1675 -0.001746132040099375 0.00023733488925819842 0.002182475682228635
1683 -0.007407938013791309 -0.02361907948210484 -0.0028324783612765116
1661 -0.0034189052572299364 -0.0011825650652479683 -0.003721116007745049
1435 -0.009294550277814971 -0.0034570493672660954 -0.006706993945981532
1459 -0.017191807025249195 0.002688978589647621 0.019957252811449656
1454 0.003518509486180319 0.006442858517965987 -0.002282562621200383
1455 -0.0045539541502853135 -0.00029323322420013735 -0.028007898526315474
1439 -0.0029008313576242674 0.0046955211618367855 -0.004982277991155397
1438 0.003264569525672374 0.007606376384417528 -0.000841706692181027
1453 0.002822250875714263 -0.006441743262504338 -0.0020168677716249084
1452 0.0006975034996069718 -0.0004880209032152114 -0.004284114571777009
1451 0.0014297804613847566 -0.002249749652847948 0.0015655683302842399
1440 -0.004968638997206138 0.003551859331434708 0.009334718099553559
2017 -0.0052776915133554095 0.002620746296016008 -0.0002852967863486642
2018 0.0052653204860739 0.0026868288382164095 -0.0025660286869563045
2019 0.0015438199119090976 0.0022258438666509653 0.007429721031356229
1647 -0.00614039447695247 0.0007116283652078106 -0.0006887284301241648
1450 -0.003159202888110288 -0.004809152961248102 -0.006189855395837195
1664 0.002446519018054583 0.0006397533529113001 0.00038338638617356333
1663 -0.0019104373927765427 -0.0038032717244020076 0.004741039320750104
2326 0.0017982984077875546 0.02080006115123925 -0.0030527330644405477
2455 -0.01981518535434687 -0.011790089346464422 0.0034518750601894794
1456 0.015263907592912148 -0.02907555577674572 0.026703614510890417
1648 0.0011498137638241107 -0.002590683424482836 -0.0013727278489921238
1441 0.008388975672193082 0.002223981449525804 -0.00047010047805364294
1436 -0.004820677225384282 -0.008055488612335975 -0.0012350643755303433
1421 -0.007164569727737171 -0.0074748766582720194 0.007542960214343766
1389 -0.0044302178269638795 0.002296702167966097 -0.002889883414670884
2028 0.0002290712161831901 -0.005842775930297088 0.01298266878862353
1677 0.013387322819210803 0.010965930408192276 0.017878278469550465
2327 -0.0023443292319723845 0.02472825699825384 -0.00351785073532832
1460 -0.019016509156846096 -0.010710013879213625 -0.008569433559821982
1443 0.0054790172756040605 -0.00037037738114455886 -0.0040665436427656815
1442 -0.004390014411283295 0.006295667774106512 0.00029323945466014996
1444 0.00133716534121684 -0.0025092201697673655 0.004094361976086572
1457 0.023705869563583344 -0.011968151630910159 0.0020882926211354402
2245 0.0021894064563536784 -0.014020175815858868 -0.025977953505302173
2208 -0.00028365798702560566 0.0008971524365230986 -0.00263671287367801
2207 0.0031840754259114226 -0.003369969411619805 0.009746709467180991
2020 -0.005082859141360701 -0.006348025031281381 -0.0022472933847026005
2221 0.0007979599892365241 -0.002364114860561415 -0.004621070683888965
2053 -0.0070943440642129724 -0.002638466921701857 -0.00033087316536425314
2052 -0.00418433997470423 -0.0011081336455897523 -0.0010860467857571063
2059 0.01530098579359299 -0.018906828897766684 -0.0013467887925130465
2206 -0.0003278447086269339 0.005799429196385015 -0.0028595209131452317
2034 -0.001842264570222342 0.008342561314925364 -0.006039863855501119
2033 0.001727070656018387 0.0016976953223265567 -0.004588328634065525
2040 -0.006013219292768758 0.0017113790003377679 -0.008099760806985655
1955 -0.014720329072044758 0.0036611333758663185 -0.004599307670000262
1939 -0.004530763458532879 -0.00818701834947817 -0.009481133982481018
2205 -0.002743734806725284 0.003838077897318997 0.002929852016623585
2218 -0.021726739131067926 0.015852758352849574 0.01559065102009233
2041 -0.003124185033340623 0.0019228807981481744 0.0021689106249506993
2042 -0.002297770815251577 -0.00758576998310029 -0.0014810716999490378
2056 -0.0003760715095485876 -0.03109460997078226 0.0049557626975786865
2058 -0.004165380548737991 0.033112349749223016 -0.011111313076754024
2051 0.000820540027683731 -0.008076937320149073 -0.003175788934519963
2043 -0.0069563428922527065 0.0014317780414773522 -0.004587183477876263
2050 -0.0021221576864147358 -0.004428136620539854 0.0019373815030441829
2044 0.0010804684733375528 0.0019947971454166917 0.004087722656104652
2217 -0.0074886648696327355 -0.03489281565923821 0.01806558448134269
2037 -0.00742932613690641 0.0011679910168507078 0.002275685392958577
2039 -0.0014743108932327924 0.0007941569397274945 -0.0022756083019876295
1445 -0.005755670855310305 0.005573673942058228 0.0014628106043964423
2204 0.0007277725401922878 0.006436923330712848 0.005556060538723159
2045 0.006198612838318254 0.0006109343274729983 0.0009775712336489556
2049 -0.0015767337846705214 -1.7024921173869946e-05 0.006603972566011677
2057 -0.011706071643522357 0.01946971713102656 0.011968776154735898
2035 0.005500341294575852 0.0033056036506487725 -0.004770386631352068
2055 -0.0032130033217198173 -0.03419369055657388 -6.91463805129376e-05
2038 -0.001587529867880428 0.0038159865178092967 -0.0014137149861812286
1790 -0.01799603587833775 -0.02046424573622014 0.002697941110420557
1780 0.0008563148213549534 -0.00665799313983385 -0.00782232108097347
1781 -0.006269098780861614 0.0024568061690110974 -0.003699818841350773
2048 0.0007017763326903113 0.004883874281890613 -0.0003165236381218536
297 0.0008984898548258533 0.004989498588217734 -0.005411822465609377
296 -0.0007028883001723514 0.0016124272260712347 0.005091064924509186
1779 -0.0008698690162111083 0.0010103712641018451 0.00015587474958424124
311 -0.03650434638209914 0.026580441674358093 0.003603181578809005
2046 0.0007523060615176778 0.004010239803177265 0.004277619958329608
2060 0.004739011361773616 -0.00792149648505174 -0.0020157916234468474
2047 -0.0030240406830119733 0.005238521349371344 -0.0054943173295273024
301 0.0007261352660481701 -0.00451857936542624 -0.0007595629882692705
299 0.0021443638670307465 0.0037401429903911286 -0.0024037038605395147
1533 0.02212623759827847 0.013171901734535396 -0.004805236400326409
1795 0.016039659141560744 -0.0019383981284048421 -0.02485462770379862
300 -0.005874656387912226 0.008632086375323667 0.0020874891772117874
1796 -0.012237693101580427 -0.012467713171426411 -0.01389099593965978
1786 0.0031075469167233024 -0.002834479111162515 -0.001506004145869542
1785 4.314376967839831e-05 0.0019987355590412336 -0.006244901890598584
298 -0.0025123328919720027 0.003940424899695853 -0.004762839936468608
2075 0.008515522233199317 0.007184646304536231 -0.007216116980607354
2061 0.0017031675341763444 0.005135513948729954 -0.0024464934287826393
2062 -0.004182672105192554 0.006720289778476454 0.0023495524032471292
2082 0.010902646026539068 -0.01617099036691297 0.00436325459759069
2074 -0.0002845728693120961 -0.0033125438004828656 -0.0034302487441287997
2063 -0.0032570572456641677 0.0009244570493993054 -0.006017952544763857
336 0.03055070704199814 0.027602435647709537 0.025933086125836006
314 -0.0011761136470914567 0.006783303845607015 -0.0004921693643332812
328 0.0038278609675714693 -0.006884599491720505 -0.006408648042526952
1776 0.005370887560068259 0.0049864911158155395 0.00020684687519774498
1789 -0.014132284022692225 -0.0020008616669771307 0.02150694583977367
1525 -0.004956504251124859 0.0028827251110952437 0.0012965071111131839
2076 -0.01358103687129885 0.017800790563509177 0.01946379473946907
1532 0.02455107722528477 -0.006075461633446268 0.00018947322732289055
2064 -0.0014146755184600555 -0.003260725551684133 0.0009905569315287795
2077 -0.020064039498918804 -0.04112365075459933 -0.013746136976306922
1511 0.0026895738110891887 0.006670634199476328 -0.007254437318557877
1773 0.0017654780988636421 0.0044340417950517125 0.001302629369323516
1775 -0.0065299522735197514 -0.0004837595615092324 -0.0037015320513639027
1530 0.02697257937484429 -0.010603793978994544 0.01631143528841505
1703 -0.0016440160573328044 0.006426993610535313 -0.0015596410510986432
1691 0.0011091430028759785 -0.0043898126144567345 0.002307275081005678
1399 -0.020389915163887322 0.014931517637589682 -0.004050147840928774
1710 -0.0009313356510608564 0.02449521565824048 -0.014404663727678428
2175 -0.003455329691008121 0.005072092022036197 0.006891157035199614
2172 -0.0037472860724017255 0.0036010491206663695 -0.004049609671958086
1008 -0.0020606817675005427 -0.008441269275422006 0.029053835871870857
1004 0.000943498409234898 -0.000770409708279033 -0.002368476726559923
1011 0.008093039308870351 -0.00431763935547178 -0.0003778066383964888
2174 0.0045600630520593365 0.001158068112464395 -0.0016127769518569728
2189 -0.00038242575295980994 -0.024847475863943865 -0.00046863766870405366
2173 0.0037861017631841795 -0.008749587586845216 -0.006334626111254596
2188 -0.017521463318798614 -0.006936462826223322 -0.0074195256857158024
2171 -0.004254496201434948 0.002954427601856329 -0.0004856940855317373
2186 -0.0038055316715375075 -0.012822369134409234 0.008353649033102872
992 0.0013338759034498382 0.0010358382099118948 3.270238924092804e-05
995 0.0043557852186239645 -0.0070686099310233305 0.0029855368999369028
994 0.00249924465892834 0.001978881598872325 -0.0021434378602660223
993 0.007343335419593711 0.0016460040764762604 0.004198412531348067
991 -0.007572680953362215 -0.0032747676891462293 0.0020370489074508008
1007 0.00812393305778302 0.012713214037898341 -0.008435392793225804
1199 -0.0025751916589116138 -0.005410130484820596 0.0005458125675183997
657 -0.01579491670626627 -0.0014802826451573918 0.0023734863674935184
658 0.0023513818108226634 0.006506819589501259 -0.001178058713303405
2176 0.0016733233439475029 0.0010607455216371086 -0.0011973006523569322
2190 -0.010201549638423891 0.01707397600727483 -0.010411412487660806
1229 0.018576208806394892 0.017618422312566884 0.022714486213704033
2170 -0.007318247698399388 0.009875706402418642 0.003173126276049877
2184 -0.005372130658741498 -0.00371755865092635 0.0016364355990308062
996 -0.004080737535243837 -0.0028898627000433163 0.0017654778380479011
1212 -0.002077936391561872 0.001846302334337224 0.007258437956970486
2185 -0.02287064062827219 -0.012772253486723567 0.01726499904050345
1219 -0.009703141455827085 -0.006079671642556829 0.001022552162854448
1009 -0.0012298429573445622 0.009726292983721971 -0.005345498982918444
1198 0.00041337688913890234 -0.002315455539299274 -5.916351393511122e-06
642 0.008142030826685676 0.002055769511573969 0.002106384947749578
641 0.0021039984923785647 0.007640506253017116 -0.0009793533480962784
2177 0.001029176261627254 0.005110776985182233 0.005405954108123181
2179 -0.006674411233502428 0.0018543962360309631 0.005430026356846037
1522 -0.0034364925702664896 0.004038074987007811 -0.000445060728816084
2187 0.01307796739449882 -0.018643545696687767 -0.0021063892817408942
1692 0.003545788056159089 0.003291214689939709 -0.004934443303020442
1005 -0.002394912084328329 -0.00959783379019722 0.0044987802916662215
990 0.00144731934134592 -0.005557340945408194 0.00034171341439612766
989 -0.0031969019205986653 -0.008943575385630348 0.0014495755849970782
1006 0.01945680931393145 -0.0020877642136846435 0.012923919594605173
987 -0.005954418527363417 -0.00898275965172096 0.00039646323383582565
973 0.007576615515671268 -0.03631869994095763 -0.01469693569341041
988 0.0023649411936084446 -0.005176393570728553 0.0019584860990240903
655 0.0008429457195075717 -0.01076310604671698 0.0037743881864664625
643 0.0023898668841190497 9.458833737140952e-05 -0.0006489150896029494
662 -0.012008469568596473 0.018173343298480214 -0.008782944905564732
656 -0.0010234806422003708 0.005688115723621386 -0.007228265332384888
964 0.0021309321815441325 0.0007697370622931776 -0.008786249831553197
965 0.004940613372011472 -0.0019770657279109677 -0.0054207342246515265
980 0.005059977422028351 0.025075860058724798 0.009039738605220102
966 -0.0007582849637023808 -0.002734823081805502 0.0033374242239542764
644 -0.0015738520368335739 -0.004032478074321627 0.0014286950342868063
659 0.004476781306462499 0.013125761039586686 -0.011576884996203973
967 0.004277419094652534 -0.001068379006144017 -0.0017732853839934942
981 0.0035431143845186764 -0.009083845312088756 -0.014544883689547799
982 0.007353976071533929 -0.014983725949116754 0.001950845584967758
640 -0.007746601786735988 0.003637806971494305 0.0013646185417802575
974 0.009079760107933694 -0.001295583181682599 0.011769046388439702
977 0.004545374141610092 -0.0030882872843859383 -0.0023467131200050253
979 0.007061586510017485 0.01492387072672395 0.03514057386854336
968 -0.001290259461225421 0.0027090461128937366 -0.007948570548281755
2211 -0.002657338210347687 0.003994976084025876 -0.005364469332056086
1940 0.002954982712850604 0.0036923412918457034 -0.0006057603839477159
2209 0.0011941513742838423 0.008493399621792868 -0.008865406037235688
963 0.0006826560110869498 0.008917658675971458 -0.003420057757654994
970 0.004104904978379042 0.004710507562896028 -0.0074163427264883385
969 -0.0044907573897074605 -0.005256483585763094 0.007891098643697839
961 0.001162812650099004 -0.004373214388070949 -0.0006540415213742059
962 0.002481907463513092 -0.0035316768303768516 0.00199069844230211
975 0.01705693452317606 -0.029802600151856384 -0.0001183466930128481
978 -4.118717182422413e-06 -0.024355416972735664 -0.02001058243413506
983 -0.0012773574951119662 0.004295599316866657 0.022970945730495237
2212 -0.004861762532035436 -0.011678114477216825 -0.00023199901806006311
2210 0.006442245564837663 -0.0010769905036300087 -0.007117035420142108
1941 -0.0006973845071733538 0.0025967157558395523 0.0018924475690775685
2203 0.0037204630593887585 -0.0014270297700838183 0.004206978489302689
2219 0.02361582169986599 -0.016513824064968676 -0.014901639629384407
1942 -0.0026450457230280905 0.007302437943691044 0.0029988123757737355
1956 0.003910391834072521 0.01634310227742683 -0.01783538567091875
1943 0.005813398138036686 -0.0015440296775654724 0.0025997107678369944
1944 0.0024513539796081688 -0.000331078722773634 -0.005680044475496329
1957 -0.010514886392624859 0.00694442344390553 -0.022281595717248998
2202 0.0033759815285710534 -0.005177677320316337 -0.006562279944637788
2201 -0.008974031443066079 -0.003978861969166627 -0.009417168059824562
2200 -0.0032421068476659824 0.005486375938059481 -0.0013025229206689193
2220 -0.00694744097903571 -5.276492934710569e-06 -0.0026961953026282274
2213 0.003479161827365869 0.0033603149146229348 -0.004619246162208545
2216 0.00901208116439937 0.020577619951602795 0.0069238363175965194
2199 -0.006168881981487845 -0.004052705487581448 -0.00037653051098236886
2215 0.008255736224909448 0.008261550872245732 -0.0069420173485408255
1524 -0.0030037984464069403 0.0010433816091183256 -0.0013156515040326378
1512 0.003514138410811936 -0.0017333442650510284 0.0020274107032800678
1531 0.0016736112881968917 0.012547612414602597 0.012323436526924606
1523 0.0030808453920315457 0.00026716219788274956 -0.003897913082484341
1517 -0.0008039365772891327 -0.0021352436647723828 -0.00034349244679157844
2214 0.006808778373131807 -0.0018948455241367245 -0.002811701460877927
2194 -0.0009931963192130445 -0.002041586468185012 0.006845934432938947
2195 0.0044030091511890026 0.00707400166264456 -0.0021182355028269346
2198 -0.00335498640292777 -0.0017941102380919884 -0.005377695044705126
2197 0.00387352970563239 -0.003818310901403407 -0.0029486489716914455
2196 -0.0004864242187051323 -0.0015162318893849188 -0.004347266551532373
1526 0.023897114720664754 -0.006548406887282978 -0.008611889318953736
1513 -0.0012772392367728569 0.0028562304095540235 0.005232974688824715
1514 -0.004853929351691885 0.005420573549700604 0.005140136296056458
2164 -0.0001915176326334235 0.0007255540660368882 -0.0032978509545331437
2183 0.021175889973510886 0.01224296244966151 -0.011009250949589747
2182 0.022617207231453235 0.013391831073731023 -0.024050221148316536
2163 -0.005746783570771616 -0.0028754878650334207 0.00021106298693623305
2165 0.0028729647345796306 -0.007668559322670128 0.00540966906242525
1515 0.0012027210680232911 0.001142514240773715 0.0024458499093449578
1527 -0.03355721344800783 -0.004932708009384574 -0.004468779852582626
2181 -0.003411935854291896 0.019566600633562047 0.025128614456286273
2162 0.0019953628008929428 0.0029591084726690985 0.0021807479754662033
2169 -0.0022773174697510628 -0.0039797824396919845 0.0005936239281128671
1516 -0.004744495912072654 0.0030439297129002886 0.0034005279912363456
1197 3.5993969772206463e-06 -0.0002803654823619288 0.005149140059979745
1209 -0.0014397857578994952 0.020007542912194153 0.014258933835376022
1196 0.00024429783743572253 -0.0006850842632989058 -0.007613271949011409
2166 -0.005604036319910364 0.0034042847977903785 -0.005368666432394996
2167 -0.0042812941052335135 0.002607844590901308 -0.003058574572445781
1518 -0.0026167036108485243 -0.000385483737832959 0.0026068091285795644
558 0.005459657577278265 -0.003915557098742029 -0.0011400074170002633
542 -0.011197743070224263 0.0034355408528253615 0.0023932945421674986
2180 -0.0015321885834228667 0.00172607985197261 0.0041659911975340915
2168 -0.0023074534329085455 0.0014435943258230828 0.007253499834938635
544 -0.0023283157079678225 0.004729302803989655 -0.0030351313539593028
1208 -0.007859312628835718 -0.013959191942743848 0.020016394624856892
1195 -0.00856166406738493 0.0030282844681681974 0.0035313626714215695
2161 0.0014019751690103977 -0.005504216480619251 -0.0013568080353885778
1952 -0.003799242980389773 0.002209566466205604 -0.0022580061989772617
1959 0.02076921282602645 0.017881480318323345 -0.01629152270892623
1500 -0.001936161590705347 -0.00817931311823132 0.001987168219394912
1218 -0.009400971807735251 0.0023840826953679148 0.0009840016115979428
1213 0.005957585720138621 -0.0025377323072717684 -0.0006321308932345823
1227 0.018515711673532734 0.0006412509265798211 -0.005413549521407933
1214 0.0005840975321611528 0.00031453214184506186 0.00340664194993462
1215 0.00045952075516997255 -0.004199759932216303 0.006976548848273991
1216 0.00020361151146157825 -0.00134617731360029 -0.0002600124847628596
1228 0.020913166559046324 -0.021499734663932242 -0.004622212127817007
1217 -0.004978402208475855 -0.0037463789886177257 -0.0028740087830601176
504 -0.005824865994404819 0.007229041998566027 0.004714569967063935
491 0.0025448588044129743 0.001126924157755796 -0.000400092098962739
523 -0.0012868925404125055 -0.007501789130367299 0.0007661102053400429
490 -0.0049094928133936655 -0.004629486623167588 -0.004982125026003628
507 0.0004522902537616598 -0.00142278799734925 -0.00465681023288555
524 -0.016790324664569298 -0.014938721195270488 -0.017146081411637468
508 -0.0045072542408450276 0.002111680369447724 -0.0004791085403407543
522 -0.0047836422461997735 -0.0008003575722568485 -0.0030302419712424076
525 -0.0005453877395360775 -0.010970397676486627 0.0038027979775254917
511 -0.0016005754743955813 -0.005701223002187746 0.007710852667053242
512 0.010772303725640494 0.0014781463265542685 -1.0352550025152575e-05
509 -0.0022161096287918523 -0.0036490414587193546 0.002037965199583457
2567 -0.0033757326613784748 0.004839066764005516 0.004324298450854367
2577 0.011762199390180833 -0.000922338232909776 -0.007479859209974077
535 0.005625616264576763 -0.013266374316700968 -0.02270498823592579
510 0.004548532244281411 0.0014140092983565872 0.0005137951712638696
503 -0.004597543822626552 0.005361323729910994 -0.00022419601387080207
505 0.00048820851986751016 0.0046613565520292975 0.007347780680617633
2569 0.001061628655700972 0.0051509497192797 -0.002200610519014539
502 0.002978025973214578 -0.006342301551622365 -0.0011553953628838907
489 -0.0038024388495868137 0.002620648834851899 -0.003935613334621495
488 0.0018891722562482303 0.0019972315667745833 0.0044892057063271726
2583 0.003434813503970411 0.0027800175849378205 -0.0004481159505691421
2582 0.000618163434862514 0.004715887460060489 0.0035946453752979104
500 -0.04070928279851179 -0.006149780369617823 -0.020892198743965626
492 -0.008894377475416857 -0.003193957457529677 0.003234328809035026
2350 0.0006935970739069641 0.0037670096536467465 0.0024844818586360214
2357 0.008235344363442611 -0.023795734725541702 -0.0011595700907394274
2358 0.008479533329981474 -0.02338859868512453 0.018705070066515707
487 0.0043299298156822125 -0.0020901609214533158 0.008059148406908547
493 0.0069505608564880686 0.0008196917622482321 0.002628782372336895
2608 -0.007744961960500799 -0.011717510787625195 -0.02533326651314388
2332 0.0014114900291544968 -0.004905808520693007 0.0015211480608202448
2576 0.004425835630636265 -0.01928734640510562 0.005565197777582377
2352 0.005835585027269561 0.00463863421876575 -0.005748155710616828
486 -0.0032035377763286847 0.0020849772545870975 -0.006341811667407999
2333 -0.00817916253697749 -0.0014170238755749954 0.006102199328831934
2351 0.0023855059528392107 0.004083079723335009 -0.0006879475060435637
499 0.027684702691093185 0.020225971680745903 0.0028247339688767586
637 0.003866085651937876 0.0002531281217718677 0.006152377483986754
636 0.00492235763039286 -0.0028531967497797523 -0.00023326012007747569
639 0.007522687257162387 -0.0004662201703744975 0.006873137792220804
638 0.0033529052361010625 -0.0037724986583835556 0.0012510147053998745
623 0.00476787801904777 0.004833639678920979 -0.0011765485275434572
631 -0.008508887163705492 0.0009832940399931449 -0.007812828801830152
622 0.0018741334307365604 0.004287544498167448 -0.002444574029748949
624 0.0003882376898239557 -0.006226114564788391 -0.00698649016437217
2295 0.029238169941964858 0.025284503262145964 0.014286994976356443
621 0.002106039233803605 0.006660810934619748 0.0007376874716937584
630 0.019811270527458277 0.007224940383853035 0.0021261529094483153
620 0.000223741475265015 0.0019493110802020852 0.0017596718620809233
619 -0.0001763472871202496 -0.001798217196682731 -0.00042941079809504884
625 -0.008096060372594568 0.002996978470937001 -0.0026361095654184982
618 -0.003410856391260971 0.004244013455924217 -0.003859437601518995
632 0.005381801813962342 0.010188076646428092 0.022713105888736842
617 0.004487016028067336 0.007842595686819153 0.007514283084565888
633 -0.012226193498880588 0.007946053069440786 0.007661413422877189
634 0.018408569813397196 -0.026046579738924804 0.013154378978075299
484 0.0035294629899122907 -0.008321018974479708 -0.004647306818757195
626 -0.0012289960399955412 0.0004532549770848202 0.003925537282964254
485 0.004511306989492461 0.004695231050135151 0.00026942973125321283
183 -0.001755732405030086 0.009216692121301936 0.01173902068180601
175 0.013878981733011013 -3.688842413372813e-05 0.003503963581415311
498 -0.02860994210492255 0.0036006684981536607 0.00803676651533884
187 0.002483647313269835 -0.0017366751905854333 -0.0048549892820678115
188 0.006044014256345742 -0.0015384610261989617 0.004094202868144936
176 -0.0021961773727248598 -0.0007051988617242664 0.0027192535915706497
2282 8.100892592353941e-05 -0.005525846876695998 -0.006223991611361337
483 -0.0004096130139790645 -0.0027832002155559273 -0.001841891496146754
207 0.002400934154877616 -0.006762426909772061 0.007915460311951915
191 -2.0374600142508035e-05 -0.005118512385057163 0.003868160631541025
192 0.0021247598764321486 0.00701034982676961 0.0062388027059437825
616 0.006994577784184014 6.335325821191325e-05 0.004530858238471602
2285 -0.006936196507384051 -0.0011317179694868504 0.003490885415483492
627 0.0029544436575284477 0.004888108463214207 -0.001297818090109846
614 0.002190039976654406 0.0022120982148447167 0.006572366166670549
174 -0.006790778426649246 -0.006231614787043532 -0.0016292922463447084
189 -0.008808549720841288 0.000618259129083871 -0.0008445732612745401
208 -0.0001551833305841511 -0.01431586779049 0.0147671739535049
190 0.001452014296754056 0.006569392790878333 0.0033162159526741782
173 -0.0028422197370755993 -0.011033750946204502 -0.0020071549917593974
172 -0.0012008915091816787 -0.005662616708631854 0.00916984241106311
182 -0.024748928927266142 0.003530734437048293 -0.009995450012707742
38 -0.004273246860143069 -0.0003867859690943507 -0.004649054573203009
39 -0.006235880380821421 -0.0048763689801748535 0.002147165083790225
40 -0.0027119194689246766 -0.0021936551018301356 -0.00460376965049785
54 0.0011097270340449006 -0.003651133995711085 -0.010045800573564119
53 0.00605539726410695 -0.003179197090597783 -0.003304232680741437
43 0.004322600931715144 0.006491781236330736 -0.00012075372177411322
37 0.001166693405677979 0.0011099762855342591 -0.0030722759356939474
50 -0.021583649353324325 0.0024411042836677763 -0.003052349035064826
170 0.001298631293939928 0.00043650957544224384 0.005402067345918602
171 0.0031586762857274526 0.01612900587657904 0.0037464626516412972
181 0.003217932460639304 0.0032662548992696207 -0.0016657785994413645
363 -0.0015069009056922634 0.018679867481503534 -0.013357183557674932
36 0.004468989055523402 -0.0014443258175016736 -0.003603670658775099
35 -0.003383027061505359 -0.002826903781871152 -0.005763623047348398
2535 -0.004543850118181168 0.005742865037285069 0.0003936785898259551
2518 0.004789524910088505 0.00016461821644487117 -0.0009553245519159324
2534 0.0004725851183069547 0.004421905031305223 0.005897951690569516
2553 -0.0169517726764703 0.02001075744757096 -0.0011636782505771806
86 -0.022027728287924205 -0.029790382315936805 -0.015000893783841436
2519 -0.008523848734826167 -0.005996626792499424 0.0005363157599260098
2536 -0.009376436140149567 -0.011992039226062975 -0.0017204262608280468
2537 -0.0024945947043298936 0.004076947322115957 -0.005933739588222258
2533 -0.00217675913691709 -0.0009859088513081724 0.0008949455452725184
2532 0.002048459859489869 -0.0037431681983099625 0.007806209277142775
41 0.003387859305157506 -0.008747337556348779 0.0025029356514737625
337 -0.006213812136348893 0.0026795167314461496 -0.005477043403673033
338 0.0031245003273425043 0.002649884253386012 -0.0063372366719740905
2552 -0.005725460037178725 -0.0034040247329473455 0.005986272436031005
44 -0.006480894834942526 0.0025281283967960033 0.0019176715838778754
357 0.0032220518419348947 -0.005663663061034909 -0.0010114509993918348
73 -0.0021514303059074046 -0.0027204687986635227 0.0030696078976704846
543 0.0018755097427058849 -0.0010196743999052323 -0.003473514156432878
557 -0.0008530498069318255 0.02035691832407917 -0.010191562090891122
541 -0.0008082332900547584 0.0006551182305432267 -0.006076346220378117
506 0.00039221648742250424 -0.0027504152088900866 -0.0007814705645924992
536 0.0018743242682539908 -0.0012979546258658772 0.0021108472621917235
528 -0.005099774323806081 -0.01657552050406322 0.009243591433912115
2538 0.012131496269204943 -0.0044359754288760735 -0.0001461495156361588
2554 -0.017459936904944934 0.005170062136808975 -0.002860175566789611
2348 0.000716449399788482 0.0013018515394891985 -0.0006812174175345007
2349 -0.00287862811893951 0.0005327627246362584 0.002616207121316595
537 0.009402779692057005 -0.00608027358908724 -0.001799816716721937
2347 0.0010005483084107813 0.0002972754827605464 0.0005531449116377409
539 -0.0022441732705455906 -0.0043502856501452915 -0.003259081966427629
538 -0.004456190569996723 -0.0037476041874696334 -0.008533273274663224
540 0.006638003965055899 -0.0021363928825071355 0.005230347578350517
2528 0.006358998794725562 -0.012774880412029257 0.015669390962934283
2379 0.0051695619130634335 0.010658890745520061 -0.014981358524667835
2374 0.01207792242515005 -0.012393528191055004 0.021152907171380343
2361 0.005669040711506287 0.006035403035147562 -0.0035445606202344493
2375 -0.007630243870946466 -0.012847748492173846 0.0173279020068699
2362 0.005136032214157485 -0.004399901665965148 0.0019285797245577442
2363 -0.0006697648013525593 -0.0022849880662041337 -0.0013883573795079507
2364 0.000747648428510794 0.004254375315325388 -0.0011730568307524857
2372 -0.0035232367240852227 0.004233661930793655 -0.00044268070160822387
2380 -0.030412886838841056 0.011394549037193495 0.004482435171359673
2360 0.0038958166135631177 -0.003482691024631966 0.0021357605490367635
2557 -0.01362393266866296 0.010119548161268034 -0.032279314827702445
2551 0.009123187622916834 -0.003169293092210693 0.0017696963890266137
2373 -0.006121345187036621 -0.0006915921821979789 -0.00273139568723722
556 0.004096482096991322 -0.001183381968136285 0.00198059875110633
555 -0.0023448977713881308 0.0009169938136095836 -0.007739187043337709
2359 -2.070308707416101e-05 0.005825225576486701 -0.003342244155301255
2345 -0.0020448561170947717 0.00019407808304632097 0.010644293404719748
2539 0.00344074988672327 -0.0053653870859621585 0.008706471061023464
2558 0.03687223429774837 0.0025371159868813405 -0.012184141649531554
2550 0.0005620932152689355 -0.00044905802492765614 -0.0016306878958556416
2381 -0.023163576540384992 0.015588264540218789 -0.01394186348630988
2540 0.0005801421068632595 0.006662090191061289 -0.004729970338511812
2549 0.0061549251640422645 -0.0006035073142657114 -0.00600308812849132
2541 0.0023696547813421517 0.0027342258197134077 0.002577796649307173
2344 0.002158752342667208 0.01068192376214838 0.00838258437020143
2346 0.001526624349772881 -0.0035770537802006872 0.0040847206806197125
562 -0.036893607663073744 0.010509283531471523 0.007360393351112134
559 -0.03033420879425033 -0.010628249682296854 -0.011573122738349779
2544 -0.0038200326233204726 0.004252313616975831 0.01015385272851918
546 0.003400527126883279 -0.0005148254687939171 -0.0047568610160512795
2261 -0.029234711280183543 0.01528133852087372 0.017223890654953274
2246 -0.002951639449892594 -0.004827767566738138 0.013524040179712942
2262 -0.010751272893978427 -0.009703994556491586 -0.004952847898269254
2545 -0.0038154209825573254 -0.00598876615532923 -0.0023137872316216952
530 -0.007724216552670581 0.017207012493868586 0.005144346319397616
2581 -0.0017393111634200233 0.013746457777410185 -0.002254281469829827
2547 -0.0026399093995901394 -0.0012200756209456327 0.0016436563263779037
2559 -0.004040554803529683 0.001401074824611309 -0.004756579295459382
545 -0.0017293350182716826 0.0018972106537317203 0.0024961757598770005
295 -5.4264012004714674e-05 0.003493863459267258 -0.00418370316234969
527 -0.015864646716815083 -0.03123213937531353 0.00770775128073029
2568 0.003597268767552771 -0.0028508797318820573 0.004731571619836027
1581 0.010944308091010529 0.0028528970719375307 -0.012514318331661587
2566 -0.0046443768663322 0.009148412214095916 -0.0015689244170614815
1573 -0.004706164822470434 0.006031109238750131 -0.0032709814987217775
1572 -0.004737900936863107 -0.0017981508641070592 -0.001296429836165708
1791 -0.018221081641653643 0.010294505984954645 -0.020099594642330836
1565 -0.006340526953881112 0.0028871233194964724 0.00453609950061303
2580 -0.013467215680360661 0.008317181626191496 0.021770276635665987
2572 0.007806919748269026 -0.0003114948237844689 -0.005561965406740358
1566 -0.002454423686617162 -0.00012575320078761103 0.005504456864434681
1567 0.0014007622787366187 -0.002813565607225225 -0.002532097146605022
2570 0.007524243972331806 0.003740069848388293 -0.0010508074096834436
2571 -0.011625243257998475 0.0048672892991706365 -0.0039142876975263785
2565 -0.001015308384102007 -0.0083442261148972 0.0027769875236789148
1574 -0.004792571622284439 0.002189163181170618 -6.353348312245978e-05
2579 -0.012648983735975994 -0.02778906898612391 0.0024292085755860697
1568 0.002081564594843348 -0.004934018005289587 -0.0009569265125600363
1578 0.023715388249747626 -0.002647478488483364 -0.025700105649558613
1569 -0.006544927602351352 0.00154775364156185 0.003380380520149172
1579 -0.015813355805287827 0.020885621900805097 -0.010204863002045575
2564 0.005136368140427333 0.0030990744576641716 0.008113995326050867
2578 -0.012140289947212708 0.014225396136348002 0.024519471582152792
1582 0.0013038152086592063 -0.003292868922695644 -0.015537789155816434
1575 0.006428049151383953 0.003053575239451739 0.005555604396498346
2563 0.001512084765281695 0.000979179743216439 -0.0005430577965448259
2287 0.003444584290247109 0.006436653880375447 0.000832492915543902
2319 -0.030215926972723964 -0.0076337917517788996 -0.020526306219077
2300 0.004615666974572902 -0.006657291390841481 0.004051644138154524
2562 0.002742574398263357 -0.004631067521081326 0.0006092422051659425
2301 0.004871738838831502 -0.005018916173782321 -0.0008750959633585666
2302 -0.002106430539316355 -0.008919244394614587 -0.002530274645725147
2303 0.002469342464804086 0.006234198676203975 -0.004884985755924179
309 0.014780316238618734 -0.0007140377904948702 -0.00990090862821004
1583 -0.025608518761008017 0.01495044734225314 -0.021357068662405096
1570 0.001015760216628396 0.0038827458403397734 -0.0017493915042999754
2286 0.0008765317388681427 0.0038152602376167783 -0.0007900372670626712
2298 -0.0001468141685386191 0.004562499903998233 0.0012743803286385889
2299 -0.0026579959994587204 -0.00733009600678708 0.005767463093752631
2288 -0.0034477394104743854 -0.003989995233370047 0.012011565225977175
2320 0.005134082417864495 0.009655955550500818 -0.00664043851917948
2304 0.007996683589054204 -0.0009928985844315833 -0.001006900315440562
2575 0.005077221884928149 -0.013943091189766285 -0.003272806433248281
2334 -0.0006390347872183219 -0.0019501081763785462 -0.0023995582437078213
2561 -0.007897450344585182 -0.0005865254293842618 0.000588701728184266
2284 0.0026421872929379884 -0.007034799426071244 0.0063295712131265355
2573 0.0022287160329696677 0.007175788596181247 0.005918497758686233
2335 -0.0032167614789352207 -0.004232262474949714 0.002592179008191951
2323 0.025726508333811467 -0.01054843909645892 0.009688019826095818
2307 -0.00504002212199993 -0.0023845527326534937 -0.0033865249515162726
1676 -0.015093226525381776 0.03873068011206957 0.002749967681927546
2027 0.02774594717622749 -0.005708380844857725 0.003145315154042417
615 0.0012995378798300327 -0.0005941909555469574 -0.006424485980791068
629 0.00285280253784199 -0.024386111561604404 0.020309847139334793
628 0.004437246058962106 -0.01938372624646697 0.015285351761293713
2283 -0.0016006160623335665 0.0034997647573091558 0.0019794406298096565
2437 -0.004857930009354768 -0.0030197357810224723 0.003708733657158264
2438 0.003146314228099028 0.0021438240471975786 0.0036754822420033135
2453 -0.0032258718991465722 -0.025106119725185123 0.001779951020531898
2454 -0.01170983971191898 0.010979401480941415 -0.007717101531974606
2331 0.012392964032111311 0.030270219499879927 0.0003713203448422415
2318 0.0001996511717305559 -0.009436118154097088 0.002694100967653959
2440 0.001260494025534383 0.006277964314216127 0.004492347308168695
2439 -0.0031504903746099777 0.0018882254501834854 0.007647281751083681
2306 0.011574214849364562 -0.0007574554749365506 0.0028189758264351096
2305 -0.00396924723675015 0.0004125876249066928 0.0032165231208218063
212 0.0031104799879464458 -0.016355485024037678 -0.0029237664143696696
2441 0.003530356969501763 0.005297001548219035 -0.0026819202224235947
868 -0.011565352609831823 0.016471788703347385 0.01763482777022216
193 -0.004222056933422969 0.004859574444605565 0.003341368597520696
206 0.004355956656785275 -0.0045821544940691135 0.0012381017156346964
2036 -0.002092057117799459 0.0010296195176631884 0.000912362145164858
213 -0.02558504585876983 -0.0011875306020067277 -0.01571239418481461
194 -0.001576784278496835 -0.005645395248729523 -0.0028569410896941735
203 -0.0020472044635732774 0.0017256907401860435 0.00040437136063475805
209 0.014002147272980445 -0.0006879780401852391 -0.009905715071733726
850 -0.002372897490710386 0.002575182730362477 -0.0024912259750503336
236 -0.002817202566945552 -0.0019504788193194485 0.014405008201471151
228 0.003569691938812467 -0.001237955064245722 0.001221767490902717
55 -0.007974267776159344 -0.003076137458542423 -0.006098739322223587
195 -0.00988378993604804 -4.0560009933981974e-07 -0.008485789235681843
205 -0.0010858734257488264 -0.0011271170283021594 -0.010694754228093737
196 -0.0028046960621000315 0.0057361406728488745 -0.0018026028473008392
335 0.012730320525055353 -0.008613945213258459 0.002967033004884546
74 0.003111814419040395 0.029230543544502958 -0.02433110242411104
42 -0.0036903382449199468 0.0038488800443648792 0.0038674810483332648
51 -0.008713322650269835 0.003620724150495925 -0.002556586869843765
202 0.006206356881575104 -0.014589632992133457 -0.0035280964042801797
204 -0.006904710493110242 -0.005926539219709789 -0.0027426057169742325
210 -0.0004931649335258093 -0.010273324566881554 0.0189819660729715
2054 -0.007312692070021571 -0.004502081932266228 0.0070104589039053445
214 0.0016445886944379928 0.010883375241607164 0.004295786681287541
197 0.0034157916020672668 -0.001013212001868536 -0.011341811009423339
199 0.00105938803110032 0.0031367059257014027 -0.003388358835504408
200 -0.0038757690636906537 -0.0012199298819570948 -0.006518169013499173
201 0.0016058870200372478 -0.002456789291188908 -0.009595125050525819
198 0.008433808163353925 -0.0029710109115645414 0.006411877194564128
211 0.0008145393715706196 0.013590368693989358 0.003894596588926203
215 -0.0004387577361471863 0.0025140976370620354 -0.00232028267010665
334 -0.01635932704485185 0.009393856673327693 0.00666590789133968
320 -0.004927152711789277 0.0033718326125841283 -0.011111672020987232
319 0.003140359096238982 -0.006475439438752327 -0.0004428380996760596
326 -0.01389133719682054 -0.0022351089456118774 -0.012550980542333407
332 0.021056685544227644 -0.01880478261811103 -0.0015200115491956013
322 -0.0042183991923915665 0.0017419788113324118 0.001512432832453724
321 -0.002524581007266627 -0.0006099356736165897 -0.002254281886546772
331 0.0185628172497953 -0.007010915832125607 -0.005279474817223118
324 -0.0029451600033041834 0.0008491122248895161 0.003186777873218751
323 0.0009593275941433523 4.1280944230332667e-05 -0.001234243420846383
325 0.011355042355868357 0.0013600027364994694 -0.00716431232889545
327 0.003896110806917063 -0.005545591280032806 -0.009000195865506546
87 0.0025763618608621542 0.0016568643868474639 0.0033558561969924067
318 -0.005351005555952486 -0.002914112283386641 -0.0015324132689609204
56 0.0030859148353279534 -0.0065241342032492005 -0.0054794357868005105
88 -0.017414368880845094 -0.0008653010610448086 -0.0010455044979204844
304 0.006096824688304126 -0.0005452145534771068 0.006017972685436459
305 0.001270376067196964 0.004704766287410931 0.0007377973035146583
2548 0.0006236676634808327 -0.001075624124410094 0.004887837086945612
315 0.00480619582701331 0.0027227500948538014 0.00622829864468175
1778 -0.004059043858259698 -0.0003826372229518614 0.008570313729480066
2270 -0.0003471973437063318 -0.03532139806161029 -0.02224689648038674
302 0.0008982923895083715 0.0029720862856201756 -0.007891716931719786
330 -0.0005028159271416308 -0.030773053540992332 0.006173246445864348
317 0.001961391073058768 -0.006636254117930243 0.002111344771436305
2560 0.00480917056955644 -0.005986584322602829 -0.0008105725053179407
1793 0.010937130561070669 -0.009110670845405603 0.0014494190887982393
1783 0.010461338969488462 0.0009981661574703967 0.0006563137965801895
1784 -0.0002994823166709553 -0.0061293517575804575 -0.005558724431922818
1794 0.007994616233798883 -0.0192186095608016 -0.035302476476781385
312 0.0013693664192013756 -0.0073971305046729025 0.03000444141047763
101 -0.001709119602239527 0.0081661561693658 0.0021880962536756808
98 0.006186721481953679 -0.00489488821836771 -0.0027679620492828275
329 0.010931838177699328 0.00784740772255352 -0.002927986603504872
316 -0.0019716291138595133 0.007109235792866503 -0.0013320048002293237
112 0.03548727904943817 0.006185631187890903 -0.006015665987684197
103 -0.002098082851149016 -0.0017574107386275103 0.00023613418802141174
105 0.000499393803898806 0.0013651344286737528 -0.0011703372369610459
102 0.002806865707856549 -0.003077438498165452 0.0051954692377651785
104 0.0037494532325528522 -4.74580749418986e-05 -0.001068541723061559
99 0.0013119168097607073 0.011149408328850497 0.003811096398715043
100 0.002998879131567368 0.002096604319175055 0.00011256643957908557
114 0.0009607549950373032 -0.0027429236973300747 -0.008233975104526788
303 0.0002353397968253247 -0.0065867326681000584 -0.0013946960207080164
136 0.012648864615723612 -0.025652511020110055 0.0021356516392173177
115 0.00013374752498326108 0.0019956075012016513 0.006080297886112266
129 -0.0188110990693496 -0.012924840072255372 -0.002927633067356684
116 0.0013241479552742106 -0.0013888027806446728 -0.00019229093410670417
128 0.0010278620671137057 0.011200059761045378 -0.0013367157179834826
1777 0.00439713359432523 0.0014220287324155625 -0.009610082575113905
111 0.017162589341160068 0.007158236681839221 -0.005239898415983271
113 0.026859612671386344 -0.01554563822024201 -0.003448183497723686
2260 0.010974165249926286 0.0003709826442364749 -0.002630878954387665
96 0.005050108969728629 -0.00024779193326778296 -0.00038073863142329726
97 -0.0028330934840334085 0.0012980488327455075 -0.0020353083637843316
1561 -0.004702111548894971 -0.003543008706806071 -0.007891936047494056
1549 -0.005544947604384551 0.004019426558480405 -0.0006039568219446935
1382 0.009112946054016146 0.00219980939650383 0.0009752709007387962
1534 0.008208911466017767 0.0006771525957771316 0.002930140259974392
1560 -0.024178782021531644 0.011700821376845288 0.004442103451043202
1535 0.0008534829975933244 -0.0013534286836240689 0.005253718910543691
1541 -0.007997101271869055 -0.0038710883194142346 -0.009705420775197761
1553 -0.0001534687062046061 0.0006944626148230232 0.0030207928056036576
1554 -0.011413021638080173 0.0034842443448845884 0.0061130742826768555
2086 -0.004047207126472123 0.004063137835906329 -0.004421115985774839
2085 0.0005596329288208109 0.004042443497274196 -0.005396218721372308
1557 0.0200872948051158 -0.0004778189020685094 -0.009932347463879119
1544 0.008587655744631842 -0.003972179718050881 0.0019429832068783828
1546 -0.0054774596483347275 -0.0024103015214893405 -0.0013222126932346924
1545 -0.0059086094126593975 0.004316138588422431 4.066207357276785e-05
1542 0.0040285019271902095 0.004165531799886623 0.006465558926423201
1543 -0.002790921075327491 0.00016922604832004403 0.005053786999829862
1551 0.0029381368542524666 0.002664992279915119 0.0013874463620631582
1552 0.00021603238266007697 0.0035366176480316866 0.0012190810123025955
1559 0.013115891400620194 -0.011001481430094998 -0.033403107612805905
2087 -0.0009122137597513912 -0.0028366142695126395 -0.003131241294361583
845 -0.02848928462723323 0.029566568085880318 0.008749774688937752
831 -0.002876407614695565 -0.00441764467186177 0.0037430790854465555
832 -0.0019818903040238105 0.00028478062476201035 0.0009539517796454215
830 0.00015962186680287748 0.003032328532484489 0.00031392381673432706
825 -0.0011694100479401894 -0.0018997670476500845 -0.003116218179161046
1540 0.005193313100185219 0.0005532492561291242 0.001978696231055126
826 0.0015538951566293928 -0.00593613514458443 -0.003001560488933027
2103 -0.008352349111482893 -0.0031335757228363736 -0.0049276364224459185
2102 0.002131446959330874 0.00030363031555586496 0.0011312639853398106
844 0.01497969723847482 -0.00871100079545064 -0.028907602468708136
2070 0.007794755823474468 -0.0022932092472035467 -0.001711344679725268
1558 -0.001669204681898133 0.008220460797688456 -0.010779402909112982
1547 -0.0032531063135487442 -0.004849064534972009 0.0008136921189455876
827 -0.003446670760602972 -0.0018506057633459472 0.0024563568166557333
1390 -0.00389069411743278 0.0017760710498769593 0.004061484564142921
1556 0.00843546956094696 0.013325856431758373 -0.005215021794968732
828 0.0011568444028066081 0.002436341610892221 -0.000593818375462658
2084 0.012187705982283803 -0.0008987628064141516 -0.0048257068751778225
2109 0.0003245827626511721 0.03870729566210966 0.014240035886385248
843 0.022468862706044545 0.002822425795726379 0.00013274056709366145
842 -0.015665751671846397 0.012992743775905743 0.00876608258644795
2021 0.0011695593733596719 -0.006380017990261105 -0.00502806471249324
1388 -0.003767798010868735 -0.00444266415428591 0.0007393486517789271
2329 0.00034667634625376044 -0.008675177994052798 -0.004353937931607168
2316 -0.0013309015138679436 0.0001461274537312329 -0.005726744485985742
1437 0.0019701120057448182 -0.0072795033855689185 -0.002885872213723618
1404 0.0024050436717779683 0.0006039400750270344 -0.0034998632048368335
1402 -0.008102736643877183 0.0021076494797626043 0.0006615789340850867
2022 -0.00402002724525194 0.0016359700979843232 0.00011366872533579965
1403 -0.00012371685125743255 -0.0032237561684485415 0.00795976908333637
1420 -0.007878936722636821 0.0009031789934380569 -0.008127907851318134
1406 -0.009202247982257517 -0.001505620231021149 -0.0029603225899176634
1405 0.0011152615651285511 0.003356701521441818 -0.0019870250919451103
1407 -0.002922671942559891 -0.0068248940599701284 -2.382289708769787e-05
2311 -0.0028967574179058707 0.004237785588886621 -0.003711463204546228
2310 -6.737553923175647e-05 0.003967267106695333 0.00292633257641449
2312 -0.0001852338438232813 0.005308320691291219 -0.0010969128542706109
1408 0.0031019169614839265 -0.0032951718162613115 0.0021805738369669596
1422 0.021435053477011717 -0.015403422537849138 -0.003673452075651918
1997 -0.0011588801168301904 -0.00029749666340330306 -8.130736498160219e-05
2014 -0.0010585889249748882 0.0005929610284802563 0.0006199573622420965
2026 0.010722093333375126 -0.0027512229673385606 0.007940307958154662
2013 0.00035948703230208784 0.008463217943224488 0.00033612945015475517
2011 0.008053595893954815 -0.0006660697693972088 0.002041532204875437
2012 0.001388314188362442 -0.0033143014697064265 0.0024253000829188103
2025 0.009514438896123346 0.001822970597585366 0.016326855639909765
2010 0.002478126561749059 0.003790765466682585 0.002479051183100711
1996 -0.00393534890951016 -0.009920677905591995 0.004684774178033233
1998 0.007785058272640555 -0.003839134503706647 0.00025239564956193846
2024 -0.001096590609227223 -0.004230862843533152 -0.002031838400092043
2313 0.001901407517130576 -0.0006657954912648455 -0.002432044314782772
1427 -0.00398259727147173 0.015381814598290317 0.018894916647538517
2314 -0.0015213248922974416 -0.006583907052799598 0.0002676046089649312
2328 -0.0017317677371300594 0.007537176954391327 -0.004512999164109361
1999 0.008058610992267762 -0.005754759618854299 -0.005485779940145201
2317 -0.010517919593861454 0.0020677041769734377 0.00014765564014816493
2315 7.540932607737977e-05 0.006135179482969941 0.006306725305160203
1424 0.013572541068561959 -0.010564166673200651 -0.00942475007610469
2016 0.0005836446291505355 0.0005625380841223006 0.004883212316729106
2032 0.02322044152093616 -0.043897868358824706 -0.026972252409755582
2030 0.026926308085515112 -0.021314365426820532 -0.008728964686395868
1401 0.007308124408660126 -0.006185335555261698 0.001025049370287436
1400 -0.0031330280986783675 0.003912328849110421 -0.001546703788651671
1433 0.0027902754622153676 0.029433504962930252 -0.0015733641652723644
1409 -0.003815447720965565 -0.005331495512130449 0.005333262602982122
1410 0.0018459262348857089 -0.003309029933078826 0.0013370010397726784
2330 0.012091475311404337 0.00023753426936841805 0.007117312117874898
2235 0.006350389539488136 -0.0036913618448612484 0.0024036314099156793
2222 0.00022088324131077587 -0.0023964222050209903 -0.003417248981990592
235 -0.0020415088186483544 0.003773161510099698 -0.02435946673914099
227 -0.003893858178947116 0.004017718743957873 -0.0017718454946762613
2243 -0.01497915074456231 0.0186395753985305 0.00750721710462473
1938 -0.0036115793315014784 -0.004605698204257394 -0.002885066245339239
2029 -0.006828881427723167 0.00723206140303827 -0.021881894257063453
2226 0.003995570259094142 0.0006248870135519549 -0.00010600013263196519
2244 -0.021557207861019886 0.0009939131158515121 -0.004064188811266115
2233 -0.0025512937233933323 -0.005547741513625579 -0.004688314285761352
2234 0.0023744031094758925 -0.004377880252330239 0.00028470944551016057
1954 0.015386190408420868 0.016984894495312552 -0.02315972877528184
2225 -0.0006546243846491786 -0.006607618558180532 0.001433525703226631
1816 0.02030596830991794 -0.007311386429262415 0.013961485436580625
2232 -0.003548492203384974 -0.0012897272656640134 -0.007700275071490642
2227 0.004404708842967822 0.0041079004595026315 -0.00119936831154232
2238 -0.004736479398666844 -0.0026590902532335845 -0.0012711092199382639
2228 0.005887614617073474 0.003841105629444615 -8.186373159444742e-05
1817 0.002684792892062623 -0.012765397023500227 0.03012327184111234
2229 0.0032216067583829776 0.001366496480657755 -0.004212390688679287
234 0.004025491770264773 -0.03433376881600368 -0.02116044587122628
2239 0.01532251822407701 -0.0005889337682461426 0.0008889919090004098
2230 -0.004731969856090221 0.004416797504251259 0.004100208709763717
2231 0.001312638350049561 0.0007485485209194553 -0.004671473132216539
226 0.005006692307279271 -0.002193155255044006 0.005836217193976295
225 0.001891246796891448 0.0012878344524840204 0.00201686021068564
1804 0.003244341409061543 0.005070606719454446 0.0018980516620060817
1805 0.005001596547781209 -0.006614681172118621 -0.005438068477698837
1825 0.010367648671099993 -0.0049616438840815276 -0.00669078273898909
1826 -0.004238161617198602 -3.3520926401592155e-05 0.0027571192905850874
1806 0.000723213670494648 -0.004337061894402479 -0.005833891408427026
1808 -0.0016642180763544114 0.0037698327174879582 -0.0076151595667052
1824 0.011704813938434078 -0.002528906000561267 0.007957511984451987
1807 0.004369899226314649 0.005991489197507182 -0.002005245106410619
1823 0.003648048714692634 -0.0006836869664658037 -0.00139819354601843
1822 -0.0035017267462215122 0.0057251252799076216 -0.0033524711412875083
1842 -0.0006246216799555702 -0.004712668479579334 0.0037544668727930767
1818 0.00818537948523714 0.009089121906371206 -0.02489898515640292
1827 0.0014269503974718744 -0.004735741555038877 0.0043108050973374515
1803 -0.007457906978423515 0.00510509915560596 0.0020012867729718655
223 -0.0006456977945046969 -0.006645163117167891 0.013169151935006684
221 0.0009280316632584909 -0.001392083582399539 -0.004251220449221292
2241 0.0036425181818372917 -0.002070003121536102 -0.009595947604282304
1809 0.0026465653490735843 0.0013400638053729871 -0.004306980427616799
1841 -0.003690456719120278 -0.0011570013597667263 -0.0010478967127047867
219 -0.004724581853329609 -0.006440403526345073 -0.0007421314931457836
220 0.0015301324236010332 0.006589639992216173 -0.005411835355274282
222 -0.0018275406641054199 -0.0005367235435241091 0.010438529306874094
231 0.018070210654872323 -0.016320971783109914 0.003362442017028493
232 -0.003590761730491276 0.021997265932953057 0.008199292870542005
218 -0.00039871918168268443 -0.0019863364290506973 -0.003165612654011086
1802 -0.0005643135295810555 0.0031185646812672994 -0.0072946367513205745
1828 0.004209373398817458 -0.005591528536314984 -0.0007260513075576428
2153 -0.004785091034666873 0.001817080580320738 -0.0001173479935251517
224 0.008344217018914694 -0.0026289894183306245 -0.008587966074218908
2137 -0.0010223441342420985 0.00230299947669569 0.00014917353335474825
2135 -0.005510805374653908 -0.005633954818731567 0.004890124428679496
2138 -0.007429836808779637 -0.0010389095786693591 0.0007730688004104293
2073 -0.0019170843787505258 -0.0005080961715742459 -0.0037012189413319825
2154 -0.0017294630660007351 0.0004072481174323978 0.013873782703266807
2136 -0.006466841256468543 0.0025345054323045826 0.0012246413578459341
1819 0.0073620629485049065 -0.03161493606816871 0.007104910681720005
2069 -0.00010238222105873208 -0.0068338470190761795 0.01282033143685508
2079 0.009321074984112882 0.016375738321451724 -0.028738196563303963
1926 0.028059294949096883 -0.007399807614350681 0.0018652502716621391
19 0.005711147749357166 0.006739702867089215 -0.026342403617079724
2078 -0.012726928021426945 0.007792137186512542 0.0055027399737695975
2068 -0.003120123238712211 -0.006542077625319478 0.0007781927232052967
2083 0.002329088034398683 0.0029751899598904454 -0.004164110650199164
2071 -0.0019988599055157656 0.0009387439585600638 -0.0023758741850865976
1937 0.007751080874915551 -0.011717368141689418 -0.0020115539280092395
1936 -0.002455772316547593 0.003962411217655865 0.0023075800781944492
1820 -0.006060474157789507 -0.0015429461877463047 0.012821232833425658
1935 0.0002411238152150451 -0.007164277735031295 0.0010772388017925366
1920 -0.002343662627233111 0.004763403283118152 0.00773628666744866
2067 -0.0016828152660999765 0.0005678306871813591 -0.003108016558098957
2072 -0.007727127718152628 -0.00791677415330153 0.0033934535106957056
2081 -0.0006347163570955673 0.018278404093029176 0.026625742861386654
2065 -0.0011279205819601176 0.004333303083746431 -0.0010607341455382952
2066 0.013660101741505015 0.0005095040835777975 0.0001122475494208027
1928 -0.005047871838163438 0.0024228070754251296 -0.014636958832459157
1918 -0.0003061942788519842 0.003770895787154764 0.0025637054820311614
1927 -0.027228942315805582 0.006559474568819998 0.007306158617032895
1919 0.006636380564904813 0.0003173586238647226 0.001105193355766003
1917 -0.009065816313415213 0.011690177988541163 -0.00029409702216934015
1916 -0.003034136391815988 -0.00027508497341414533 0.0045543051200410125
1821 0.0389711214080964 0.006524519971536036 -0.03219219971171008
1810 0.002592295890573458 0.007850909280206169 -0.005899302492673433
1811 -0.0020897341723302098 -0.006709136157080044 -0.008435481575720593
1 0.003485113234759204 -0.0009885634197319834 0.00397260177536135
2080 -0.021781966194611757 0.01229747047986635 -0.001749576887376755
17 -0.0025795893953004466 -0.022529237275022075 0.015994828429910433
4 0.002056935233831109 0.0009371496011667324 -0.00738176532546974
2 -0.0005809608644696861 -0.0012613235754596172 0.00025668039576881444
3 -0.007832710700232566 0.009928852676292893 -0.0049696431066449205
1915 0.0034045540917158105 -0.0010438112258395903 -0.0023345187797366466
18 -0.002217937828319113 -0.019813229872454763 -0.0037654221329898228
1914 -0.004784048014066503 0.003737165855956553 -0.010440372074290057
1931 0.0030666833136869113 -0.0033022669562957365 -0.024738320156337205
16 -0.009504697132467294 0.012340866560766276 0.006900472516613802
1801 0.005886343931514158 -0.0052777116979721385 0.004315128897001815
1923 0.0017049157451781228 -0.007466226988667753 -0.004864952026427193
2139 -0.0012980825715178407 9.393530371688447e-05 0.006114980519039787
1953 0.003572717167905727 0.0018216286154802905 -0.002153865484167571
1922 -0.004177621398295713 0.0034990420918272736 0.007281942860878297
1921 -0.0032965987598951928 0.0005734447545806634 -0.003369779999370819
1934 0.0007584750180495265 0.001169606656614307 0.006468526225203926
1930 0.007906213062186801 0.011861021680919563 0.0004308050650392015
1538 0.0034704039556390427 5.7404394056261554e-05 -0.004849362737246912
1521 -0.002772706736027679 -2.293444845648598e-05 -0.0011292010281987459
1539 0.0005382968616715232 0.00259407042940794 0.0017320095150694375
1536 -0.000626229177849946 0.010029270984464118 0.0005014315465488341
1280 -0.006948756616166125 0.0038514957696304205 -0.0009398109508790163
1293 0.0026694772011536375 0.027865759902048755 -0.03951291468177851
2192 0.001768173744553363 0.007429807246065477 0.007543906743114524
1385 -0.0029443752069839373 -0.002186033394764618 0.0017696558956964332
2178 0.003699165995566091 -0.000853554056149619 0.0008677679498438162
2191 -0.013507207515830835 0.015541893104714126 0.010854192283701379
1555 0.006313548455849481 0.001965447187557586 0.011303842948315924
1396 -0.008096619274571816 -0.027137645709415487 -0.03307777170750212
1537 0.0007234585686867947 0.0025868873783801804 -0.0037950733795827397
1383 0.0022818828365928235 -0.0006202316085978703 0.0029589278768681897
1384 -0.0009258288042034556 -0.002580198296005493 -0.002663955609619707
1397 -0.009619155328667679 0.0017437930205520533 -0.016822046621290446
789 0.0008941910074814426 0.0013188887981771106 -0.0055770002506858075
788 -0.004426186914518934 -0.0016883309809416318 -0.007422616220393293
807 0.007270078080751299 -0.015117154903211513 0.010491312333628844
772 0.0015364709097518386 0.002668461083250487 -0.004036145957913095
773 0.003963837400271901 0.002436484932923877 -0.005805074799268459
1145 -0.007380488397819238 0.002078456348084393 0.0010127043769184029
1144 -0.00394947619285962 0.0037317208171692047 -0.0007308483857503028
1153 -0.0012762597013995778 -0.006937297822517133 -0.0006429731309752682
1160 0.0073655207348213465 -0.004969495219835008 -0.009390484588106837
771 -0.0023344112517856706 0.0016650506070038675 -0.007622556427516081
1146 0.002673394294398471 0.004247866728079958 -0.005525196978567302
1152 -0.006086988515169026 0.004798491757645106 -0.008388741021771751
781 0.011012756191791106 -0.02852341503776915 -0.0050523437000745425
1177 0.028252624922448955 -0.0053292051877861105 -0.014712666189917017
791 -0.0035621794622313456 -0.0034683445943802854 -0.0028813966046222312
790 0.0019994106786590934 0.006587554453946549 -0.002357475952676746
1147 0.0027663130500323757 0.0031409825898660016 0.0015457584582778876
1158 -0.01211409786572233 -0.00788673069921151 0.03885946053097084
1159 -0.003685752610337768 -0.015883685915198533 0.0016715046911256542
1143 0.007690157579955416 0.0024063046825971565 -0.0036510136485796933
1161 0.008732683290376455 0.023254619869675197 0.0011256846312518707
1151 0.0019768845692926928 0.0029473879371622077 0.005479579226770582
1150 0.006427350651135152 0.0007115890217936182 -0.0008118624208008634
1142 0.002178518182569332 0.003322604312632347 -0.0017104945840595994
1154 0.004770920693120977 0.0029346445089105423 0.00553124234545513
2641 0.0014530622575437005 -0.009053620204624347 -0.022590742877279406
922 -0.010155663096966049 0.011833615946876078 0.018333644191765572
646 0.0022591815445417093 0.005203459062037491 -0.002378802276087938
645 -0.0003683733393433754 0.0013430911394197369 -0.0025435117744504656
661 -0.0012550338971746694 -0.018945481204939704 -0.006055189288417171
1434 0.0008025183783708656 -0.002342426402486921 0.0036174793605975556
1411 0.0005491221795063974 0.007422082784873539 0.001093353048065389
1428 -0.011211610014463604 -0.005323380371075478 0.016373589566953273
1386 0.004158562270547388 0.006119588218888304 -0.0005267795284380046
1387 0.0021025711177980414 -0.0031041144068684953 -0.005381424503865015
1423 0.019957001540928807 -0.019446095203628066 0.0020704418890733
1425 -0.0043603433623879174 -0.0266206615504844 0.006067922325275151
1413 -0.00942914136219826 0.0044477172304459 0.007515150766751463
1412 0.008220079076064462 -0.007659568850743573 0.004833692146948888
660 -0.011519168024409469 -0.009392544971618183 -0.014740852451457826
647 -0.0005662918862420772 -0.006513818404704189 -0.0007827063148707703
650 -0.002892472460207239 -0.002057916699390833 -0.002694935002599349
654 -0.0016386651092505525 -0.009787834177869678 -0.0033703069361629727
653 -0.007955437718531208 -0.005941000171195357 0.007482710707684226
651 -0.0005181010630762915 -0.0004447442373676914 0.005265183563370104
648 -0.007161098513470857 -7.803056570108868e-05 0.00026038688235805986
663 0.002120983750343864 -0.006957841323184942 -0.004565601997667219
649 -0.007123190379384183 -0.0015034515893630608 0.004145994937029097
1414 -0.010589921243693338 0.00022111221857422622 0.005414761171846915
1429 0.003523643596805965 -0.01084309433737317 0.0008387492169176831
1157 0.022651427490524047 -0.003245972998917491 0.012391235433417396
664 0.0012170909280790423 -0.010120061936125377 0.007808731797244179
665 -0.0028163370043981584 -0.001242759913361132 -0.005149369360506359
678 -0.005249181288665109 0.038125383687505975 -0.00947403474853257
666 -0.003677361323581112 0.0025240695904327334 -0.0005926174865840354
1415 -0.004259215495247757 0.000583453237671985 0.003982132379563954
679 -0.007342541369960271 -0.018362997039484616 -0.013376163174600301
1417 -0.0009478317521761774 0.004263673330676193 0.006475746795655887
1419 -0.005483220247454928 -0.003926991487835122 0.0037237910700418397
1418 -0.0012029593441148156 -0.002391129451292266 0.002573559775231396
1141 0.005490682686979595 -0.0027153357006782348 0.004045391954242701
1140 -0.007916527994715436 -0.004418271394146747 -0.004713381546365231
1156 0.02174514383652301 0.007927073075741769 -0.016710167624374675
677 0.002500827293352778 0.0005720109486753085 -0.003900183081574756
652 -0.0037292264765639046 -0.0029984860019164096 0.001350749047167298
894 0.0016046093815976364 -0.0021689966994476273 -0.006355321746854179
884 0.003242258304839394 0.001618783809649263 0.00895694208473956
1139 -0.0012195773181990011 0.0009875249217899242 -0.007487576302393461
1155 -0.001961419035663828 -0.005412368590826922 -0.006749406019150999
1416 -0.0029769766593697906 0.0037415125739442786 0.010599251055072034
1430 -0.01795801948682698 -0.04619439165002112 -0.0007137187751803439
2224 -0.00044384650481365607 0.005363549858720644 -0.0028240555111051194
893 0.004281252444851667 0.031009136904093505 0.0009189196117357356
885 -0.0011022301249211683 -0.005209594708896258 0.00143306302410669
2223 0.0007062267988096546 -7.802784438352851e-05 -1.7047879546915553e-05
2237 0.013272720112721525 0.002071290666061922 0.0035977658585625155
1951 -0.011703247641014835 0.00486869609885881 -0.0028483795278190995
1945 0.00336808368288645 -0.006877828556587722 -0.005646812607564994
2236 0.021783909800574767 -0.0010625926084946434 0.012491275685626527
895 0.0022168429701375685 -0.019509181054837607 -0.029364202983395718
1843 0.025691582833685826 -0.012081728891494432 0.00830335535690635
1958 -0.027611303794303956 0.02260583546125058 0.0071311114852936905
1950 -0.005368920451144931 -0.0023282455466423716 0.0029835918933057066
1947 0.0028442541143668914 -0.0063775785835236895 -0.001225752220988606
1946 -0.0015577100837409763 0.0032304574417835754 -0.00018364363990941595
1960 0.0010374061655538415 -0.0007947096604124082 0.0021813147337369997
1948 0.0027662291739455327 0.0006813279866744217 0.003568743489568196
1981 0.014975112035788569 0.011467684683836831 0.010850507907758163
1973 -0.006148478996996384 0.002135414846775828 -0.00835615946870837
1982 -0.03889059879300564 0.003127245198348509 0.007336000489931715
1974 0.008946159945352979 -0.007614422307993331 0.002352962006623881
1964 -0.0033144645920780446 -0.003762379527574204 0.006600701216688118
1963 0.007649192404466584 -0.0017502783363117043 0.010315942820948387
1961 -0.00316168007115291 -0.001561591671777405 -0.000652882374886917
1976 -0.009145679546721948 0.03320760613554215 0.02234866070937642
1949 -0.008091388434856954 -0.006901311872670537 -0.00035271496353315226
1975 0.024400152421267928 -0.024413215622000627 0.007338528001613381
1962 0.005134599079318894 0.005369496598009284 0.0050207150994315735
2152 -0.004596196381413083 -0.0016106915589716663 0.0015123405269637164
2140 -0.0013044753930939639 -0.0003168210872349542 0.004199641139373873
2141 0.0013578477805878213 0.0034455023918493954 -0.00461263258489386
2158 -0.02591315677463749 -0.01392325915215298 0.018258674247265187
1844 0.0018727328168032843 -0.030136634942368 0.008000195238465952
364 -0.0019355916357055958 0.0032376725859383174 0.0032619494695464205
1965 0.007113154196589733 0.0042683035010199774 -0.002006876203806779
1977 0.016338408171538095 -0.0003028230006605903 0.017637965568546656
2159 0.022501845461361095 0.0078338061728708 -0.015563294356183463
1980 0.010034033012845911 -0.007179934696466859 -0.009921366590363493
1528 0.003005884950713388 -0.00999580981228264 0.019136613000163855
1520 -0.006274753611345549 -1.820806888979572e-05 -0.003660301615774573
770 0.0006170779856215446 -0.003525301545181981 -0.0008658415686286059
1279 0.0011456113993704956 0.00033634477818720134 -0.0012635698264229992
1278 -0.005782240188129563 0.008906182100086405 -0.0025635676383924423
780 0.021963173488995017 0.009438061490247547 -0.009285053325809554
774 -0.0008330604163402461 0.00028824457271338014 -0.002136200811679849
782 -0.035066614386328604 -0.02242700996548659 0.0028666676937883495
361 0.011054351007641992 0.030093776686126734 0.012713518770365657
2155 0.005792973091859945 -0.009122212218413682 0.01600460121471667
2193 -0.009828340178806228 -0.001968922829194043 -0.01056044382137636
1277 0.003306101140945176 -0.006836893144856093 -0.006806056808816711
1519 0.015301732193851976 -0.0006385099743306935 0.0029486562946114464
1292 0.0029042622292124558 -0.0020230479679342007 -0.02102549485432043
1929 0.005509997942885393 -0.014544543607066552 0.02229640629811733
1291 -0.011748179058890628 0.007047326775392383 -0.0036369417695705235
1276 -0.0012666708766223252 0.0035374787435763825 0.006752382749771042
2151 0.00046629529820154156 -0.002546608967910751 0.002763946426782078
2142 -0.003011279859062381 -0.0006655562466405984 -0.0019007428231952333
2149 0.0025752204543780677 -0.0030091465047019724 0.0010141354151896238
1933 0.0029052051926333686 -0.0018874292868234419 0.004195913203601328
2150 -0.004490014573193917 0.0060228544054572045 0.0006473050263170515
2143 0.002204921587492808 -0.0042066346036457826 0.0020124403070075434
2156 0.001533241402977912 -0.004246022873433076 0.003749078570620361
2148 0.005623974232528074 -0.0034039505104605247 0.0005939135319275332
2144 -0.006027251318184342 -0.004288936882517639 -0.00841601437846068
2145 0.005056945870218144 -0.008030631531321577 -0.0017604608462866763
1529 0.0014186021192134591 0.011583967815071797 0.004523010458077864
2160 0.00811480268721793 0.0004959357177072579 -0.0068902835344229205
2147 -0.000812391429115445 0.010842730471186226 0.0037639954110829576
2146 0.0010838658548221363 -0.0066924026140591395 0.006771053449489389
2157 0.01539990913489518 -0.020363467585025163 -2.9212345948495325e-05
783 -0.017235303554235356 0.022762572469008306 0.006197148944733034
775 -0.006588876803137233 -0.010542781222183946 -0.0016596317560531168
769 0.005631729782459107 -0.003513719746934556 0.004112461021114366
351 0.004441416757463386 -0.004749776529715419 0.0028756122044898726
768 0.005827902860943159 0.006971957925471571 -0.004477399225554924
397 0.0068409698731229755 0.02882522494614466 0.027209962260503304
767 0.010850268102611067 -0.005533416765320045 -0.001498098218063932
776 0.004995987636942523 -0.005247369421673899 0.003325495867747331
384 0.0031651355423866307 0.011098597251166114 0.0031496031034751568
779 0.010117611453200826 0.007075006020856128 -0.01764735669152627
766 0.005142261394833281 -0.0014748203994588169 -0.0008536896614433155
561 0.024445267608044094 -0.022714567273645247 0.015156290741497928
350 0.009363363929125585 -0.00024430363759909973 -0.00036050790267734355
365 0.003931167276412228 0.00013348466192180568 -0.006923158073822022
784 0.00012199405368231372 -0.012813447703702725 8.248140322749957e-06
777 0.002432772858950663 0.0016498255885092203 0.0016475071948894246
372 -0.0006963181388240793 0.00948053487220132 -0.005712801637102711
787 -0.0020794225274376934 0.0013835548682061458 4.8647946491753304e-05
2628 0.0008723359499636375 -0.005269313068231128 -0.00227960245058188
923 -0.016154101652092363 -0.005320538794381319 -0.006908512672943378
806 0.006355609600709462 0.0021243807060176 0.002894260388372868
786 0.0004381482276919289 -0.0015800372527938283 -0.0014213311965828967
793 0.0016839205871389588 -0.007899977918740305 0.005234784294580118
792 -0.00362982696644049 -0.0037057161641355792 -0.0011991880582664551
805 -0.003657869280709378 0.004861775114978526 0.001271621448988849
808 -0.014835230868266535 0.0012189500167272165 -0.011266310596496206
812 0.012856845833365872 -0.012524457935319826 0.027608286736743936
2341 0.0005036498630611002 -0.0007019554964531837 0.0035727600051575575
2340 -0.005634484861211279 -0.004417107873858931 -0.0007665441167306492
2339 0.006636245239400344 7.798565549249888e-05 -0.002884404229815354
809 0.010715216288246569 0.021229469898537138 -0.0023138164082084707
796 -0.001728366276791473 0.0002319180002565866 0.0045826780664719735
797 0.0039950497286438775 -0.0040446206666740585 -0.0012973119839271889
794 -0.004368517186970004 -0.0024681382664032457 0.0055880149385886795
795 0.008426956918919898 0.0038736840524767734 0.00032352888463109587
798 -0.0014288672554111784 0.001364806851978935 0.00035039052944374005
803 -0.003485410986288577 -0.00481254892377549 -0.0020668066364040753
804 0.005333827626954592 -0.005721357161691758 0.007653829687707859
811 -0.012497851881137747 -0.00547827377099682 -0.0011172108056828772
810 0.023197840450832133 0.011462525400170313 -0.002026444461919462
914 -0.007422821248011677 -0.00013622253503736158 -0.002854765294053132
899 0.0023749764896275377 0.0027574400511049223 -0.004376194382272218
915 0.012872467023453337 -0.008426408622676842 -0.02357780812954912
913 0.0006367343729439293 -0.011925317340525488 -0.0005147484965207701
2627 -0.001430864839211822 -0.005961440296249088 0.004674470302335362
2640 0.009176647337509725 0.029740624154289942 -0.03266026829987818
2626 0.005815623978738426 0.0008867428994319287 0.0025008799165610147
2625 -0.0036308486882082407 -0.0018258021223254125 -0.009565539203357976
587 -0.0024689553350559362 0.0035871851871272582 -0.0019617545494310567
2624 -0.000563489534675568 -0.0031722755075372076 0.004278143331256211
2639 0.01976686601610631 0.028289062148071007 0.0014984361694144928
801 0.0034700288102170827 -0.009506364813455051 0.0026394969196850385
2338 0.0010170298312014224 -0.004353234649021957 0.0005250701128878561
2354 -0.011139965898838419 0.00923921674115491 -0.01642501117895111
900 -0.007744996368220333 -0.00290880314655262 -0.0062653360280197174
572 -0.0013214802482697352 0.005843129166744481 0.009650635732213737
574 -0.004640571048349666 0.0016789666444622085 -0.01355927418500971
575 0.007116570525211419 -0.0030693013533536137 -0.006053225581795643
2355 -0.0007819343147132567 -0.03404468834166835 0.0008960170565364108
605 0.0013922707784119518 -0.0020124599468616835 -0.0058835154540023025
799 -0.004950604595047337 0.007713362740323566 -0.007025447872370048
612 -0.009345723996054942 -0.009515504105352634 0.018047674540585555
912 0.0025823380078807403 -0.0011391844326728877 -0.0040725611553405
802 0.0032233272908565687 0.013050964406917491 -0.0038371271216707096
901 0.004911779095995336 -0.0019069653010728696 0.001435252054807239
916 0.012118777910450398 0.008019248819040333 -0.004422060461896087
569 -0.00644285543942163 0.0037202748222644093 -0.0010160502365829593
586 0.0013509091093077009 0.002152379155262426 0.003862265104126632
571 0.002132542692856062 0.004545912842491504 0.001550313708374576
570 -0.0025881154644537482 0.00822574847477251 0.002608773216028704
685 0.019765397343454272 0.010171800513628388 -0.023115827858519875
883 0.0064814506661231884 0.004260906934625498 -0.0016028203560456058
667 -0.00710893850310564 -0.0031012054191983537 0.00396885573356273
184 0.017124700305601537 -0.011343032087080865 0.0065462070500506096
635 0.007827678517066991 -0.024539697551392434 0.013879174514680683
676 -0.005237967767935614 -0.0029979689602717824 -0.004387321920596833
482 0.005132000565251479 0.005766830550899385 -0.0094272868866185
481 -0.001049563392677498 0.006836142047927354 0.002719219994462172
480 -0.00317676045156678 0.009906424529775545 0.010771942574567065
497 0.007036706703566719 -0.010835654966413494 0.03251852948195457
496 0.01058522472763591 -0.012668082978258497 0.0034819075260893455
501 -0.00479250356216627 -0.019791321687384938 -0.01084616317700478
494 0.005657355193215871 -0.003564491219122855 -0.004481470962224394
495 -0.0024519700976800038 0.0008736203264191065 -0.0011728064013303422
479 0.0020366542224537084 -0.004626914750659605 -0.0014695696848204748
477 7.155576738978762e-05 -0.001702783090464364 0.006021016993663913
602 -0.0008214566063013794 0.001628478131321163 -0.004661326925548292
476 0.002074112897487419 -0.0008466321310021281 -0.005994409484939832
475 0.002068528876606218 0.004193692933812098 0.004701733467089465
876 0.0033434580008525772 0.005266048543951846 -0.00023220997949954225
889 -0.002814995815027964 0.011190568437953777 0.013389273392129326
478 0.0015360275288757766 -0.001148237176747404 0.008583253745471479
460 0.003351561763341336 0.0025824660309506356 -0.0021788162776985266
470 -0.013075478873178944 -0.010538778941477492 0.013464923608192007
459 -0.0006895745335696216 0.0022167193526916396 -0.006930580857448824
471 -0.004611820745001281 0.02429102067227991 0.02021536133471902
461 -0.003196464492210507 -0.0018385361389740614 -0.00440363429483337
458 0.005676753869321158 0.0021143895398749463 0.001193195915953967
890 -0.006532572696326123 0.018642208755004806 -0.022677830798926667
877 0.0034189517543875415 -0.0028716839845603424 0.0002778100086266826
601 -0.002846252033715415 -0.004520566606121399 0.0005586643805747555
611 -0.02577650713556257 0.016691629439031137 -0.018118968466116415
613 0.0053451890972110805 -0.0012598824481088549 -4.383375873931409e-05
457 -0.005088672016089265 -0.00018876208804712434 -0.010947607874351424
469 -0.00644383163028671 0.025426905082221698 0.00521570837618447
683 0.0038069849203466828 0.010641207228918644 0.006741804895618107
604 -0.0048353219758082945 0.005446248313044118 0.001437296778212093
882 0.009562998282449747 0.00030734711517476976 0.0006747990224313046
892 0.026862689698373812 0.010204637247253737 -0.01615575326842098
891 -0.011110422720236487 0.006313101518551391 -0.0017035645173921494
881 -0.0021649685831990144 -0.0012593896502123894 -0.0031975976199247226
684 -0.0045689426535098976 0.004321530052531853 -0.01994503294924328
462 0.0040397821185124486 0.005049191074510219 -0.0023413588700022608
603 0.003684283504074513 0.004597453662113178 0.0024058747445030856
49 0.02316269947664787 -0.017404406340446116 -0.020543160623016393
34 0.00349860173705314 0.0037045110700310545 -0.009841947003621723
863 0.0015126275064114483 -0.004152743745001545 -0.006641272939236049
180 -0.009556772345689763 0.0033375925542025947 -0.004788587916840591
875 0.002480554051310409 -0.003541889485147636 -0.000580990002139915
896 0.002376216881671854 -0.020545551505066637 -0.0014898760195136275
356 -0.0004797118028449711 0.005199263219388769 0.001263634127231991
169 0.0010919740917401015 0.002431872715272642 -0.00393036053994802
880 0.005292653553703292 -0.0009969340673266285 -0.0013668817860131596
879 -0.003098421337001496 -0.0033677821857680717 0.0005623316485930802
878 -0.0003720271433243715 -0.0003546592982119541 -0.004982206846951367
167 0.0018738207033009017 0.0031091058740270448 -0.00434860385312446
179 0.0025398228069067625 0.004545533285877476 -0.002209986898849268
886 -0.0024232997976692677 0.004846418986775239 -0.0061070940262565755
168 0.0010925102683101312 0.0018348394716233576 -0.00915933804604508
177 0.005277626973970151 0.0036575315735151853 0.003731689811807327
166 -0.0034733237363744453 0.003386338210510633 0.0054522204163875085
165 -0.0023855596286465114 -0.01174453198584616 0.00023578770067047997
185 -0.020916216386777597 0.009907425734299919 0.007413867160741019
186 0.012096152278039129 0.026135529372967238 0.022603994622278245
178 0.004315986250114939 0.0018190630214799455 0.004545912819138238
344 0.002361184278463031 0.00013415914810831157 0.006019337392052279
48 0.02471333595811913 0.006487120176034715 0.01128628464070217
345 -0.002770736066000902 0.004097509212614235 0.0016491154906748734
346 0.0038984723997708545 0.007920179444037225 0.0009025577426989179
153 0.0040495824336911615 0.00010239092960478753 0.00016130425824610755
362 0.0001946665410949459 -0.028759185585171952 -0.004238416834189591
355 0.002281310652901982 -0.00042291078550525283 0.0020416040695983317
32 0.009586083772985615 0.005895727068126131 0.003783811043215386
47 0.032960452791977325 -0.01783555591739917 0.002279476787985783
164 -0.003049278288110435 0.0002591763770597852 0.0034199313397473455
152 0.00570050190706635 -0.005948369782335786 0.000833937671809713
151 -0.0018852874506930762 0.0033393328238392433 0.002353228818387787
150 -0.009558871460118358 -8.911330823367106e-05 -0.010178409543892108
888 -0.0019179038271648651 0.003185104354494087 0.0034336080472587463
898 -0.05282108698974375 -0.007329286703994173 0.01800067176884285
887 0.002502861350417516 -0.003772743269414122 0.0016148879629550874
897 -0.00788131985133881 0.004482065334135159 0.005425067243352799
354 -0.003340766749786076 -0.0057251595662886415 -0.0003914675168081866
154 0.008403564826957777 -0.0016838590160525703 -0.0004074998872858387
162 -0.022049136479549963 0.01795666144657588 -0.0249015667148163
155 -0.0016974332733873706 0.0024043438729123546 -0.0043592640121526945
149 -0.00418539023892521 0.010819199852503177 0.005854145513286642
347 -0.0041091225242030184 -0.0013467978326356443 -0.005347585169622647
360 0.008809154069967419 0.021547586445136834 0.01674766659480177
31 0.0021924932675117964 0.004843071717186112 -0.000360679682143516
343 -0.0050662368986868775 -0.0009256732478089479 0.011953438151184038
352 0.00019358504136942695 0.0013845653883664442 -0.001584229300210022
353 -0.0023885880029141295 0.009977126866210132 -0.005801069455814899
341 -0.0003046818531298214 0.003214995296080511 0.011020124143210148
441 0.02509584374302827 0.010125358668299196 0.007631046117901539
348 0.006132346410793354 0.0011136581420640964 0.0038894842386837684
349 -0.002668181543908584 -0.002858392684684394 0.008580958619024522
874 0.004493249150679688 0.0016561006107839917 -0.002262335273330394
33 -0.006723438024469706 0.005771072521497181 0.0098062557759175
2342 0.0036415093716836437 -0.002387295667108417 3.31857151054494e-05
359 -0.01103061059978316 -0.0028251552197174753 0.012941781130005358
579 0.0023768132093717124 0.013948122026266786 0.02426757560152241
583 -0.020281168264280492 -0.024083286300357328 0.008885900049968892
2542 0.0025391851447144156 0.012848694596151884 -0.001932683391575614
156 0.0007348010648433541 -0.00589290598721216 0.006715576611847162
163 -0.013714421554581779 -0.031535629490233814 0.0017005802047764449
342 -0.003047411319271884 -0.001181493727061348 -0.007802978180816718
566 0.005791099342245936 0.0025061251606615883 -0.0029497870631810166
568 -0.002833438364576084 0.008456524953920849 -0.006736297778441806
578 0.00720128481829844 -0.022490726363839128 0.024953447705875806
2343 0.0015639359730815353 -0.004539796492104612 0.007851166039170259
554 -0.002490240574812235 -0.003179065127933953 -0.0045727375016808005
2356 0.004424488605172483 0.017750014029570445 -0.02022108739716859
2555 -0.022130186853417083 -0.0032377700253654685 0.00305571123733058
2543 -0.0060218748632500105 -0.0034117959802466473 0.00355676876983521
2556 0.0026364560703598387 -0.0047667915945834955 0.022701294977650263
560 0.011121316258502064 -0.007169458445314385 0.015458506171501999
547 -0.003314362306854546 0.0008351243214232872 0.003665482368625603
548 -0.0012172220206889551 -0.0013736587171666677 0.00017604508632060488
553 0.002347481411526358 -0.00330979369518871 0.0006674994545376141
549 0.004854380895886042 -0.0044935794339600686 -0.002279506593614616
551 -0.0004771402282265016 0.004416616451669311 -0.003662718697213255
550 -0.004658209140540494 -0.0032341390016533936 -0.0011307389211404235
563 0.0024519735935206346 0.003571418366979083 -0.0005780360612870969
552 -0.004368091385278034 -0.003713023424166167 0.0029105858177755134
765 0.0005482066280781972 -0.001546175568105576 0.00395811525568466
565 0.0024705071527547653 0.0011628054248402336 0.004605387588631908
567 0.0014284454511021521 0.0038859118347180288 -0.007712660385580124
137 -0.0077950267775064455 0.0022725430646423693 -0.003274767710036138
564 -0.0009499899740652885 0.004019877405843392 -0.001219169515052795
576 -0.0005433389323292239 0.010088797630882147 -0.0016776655276502894
584 -0.02290732321918932 0.0160750483763948 -0.0018963947199848077
577 0.0014496753577096784 0.00030104784917796913 -0.0008478792737443852
778 0.030863317985225753 -0.00576434531536844 -0.023203460513408436
585 0.027759539228427017 -0.014448026130304492 -0.02786417493898981
157 -0.006167359672902346 -0.001116853329279598 0.0009048491345304751
764 0.002591306030204268 -0.007599293627038787 0.0018479954460395626
358 -0.013094185586880401 -0.027466412421212512 0.04581242543748526
2546 0.0021628247723866575 -0.003857806044412851 -0.005207919233861625
138 0.0020331496607755564 0.00401606151917112 -0.0018687729962327151
133 0.0028318824302790476 0.0020810701528160653 0.0151045691786034
752 -0.001085812325220466 -0.002142975480683353 -0.000317051995089426
763 -0.0020101773800715573 -0.0037476311303485756 0.009438141569228566
751 -0.002958021597799835 -0.0029099250410420047 0.0019876283479919946
750 -0.0007855858866150048 -0.004156185451766787 0.005011029870691849
294 0.003368120111384874 0.012087193917867185 -0.0022704014429526854
293 -0.0015318437815762531 -0.002650078109382563 -0.006780582883305306
2321 -0.009971121335210387 -0.009923155576996964 0.02341572489029209
308 -0.011502954127748648 -0.009913035855936106 -0.01823237263368918
839 0.01981761547459233 -0.010666182302387516 -0.0010915583428652447
2088 -0.0006625683836723212 0.003927052953254938 -0.0009301559391231327
824 -0.002033274269229272 -0.003925835013654277 -0.0014699803266623708
306 0.000805364051761424 0.00467749223092477 -0.00015740950522671372
2104 0.007539786129366186 0.020298969051376514 -0.014134063821972284
1548 -0.0029345453757312952 -0.0014855333888296963 -0.0021065414738180377
573 -0.005992578301954594 -0.004912797251016092 -0.00019234465412896353
606 -0.007758163430609965 -0.001527590710003424 0.004506683164650752
582 -0.031129737417057136 0.011854845623225974 -0.01353498699038732
292 -0.0038826519824485145 -0.0023536807876796484 -0.0005530358569008679
2090 0.0008260534584570624 0.006019909851050783 0.005901833766788676
841 -0.0014320018119349724 -0.004917341492713434 0.025205063295079932
840 0.01909359054245607 -0.014713418069336863 -0.007703711473120486
813 0.0028938455711339612 -0.0043434859885540895 0.0030698365773280693
800 0.004865228090655261 0.0010209545983551054 -0.0019434285262723472
2322 -0.01437011141492944 0.012300030009945817 -0.010971458448513426
837 -0.005948492276160402 0.006284381658319844 -0.006613800440961436
2337 0.0024417990970154483 0.007038151804482464 0.0012443057714224136
2353 0.004540657830410403 0.0037943708313128597 -0.00989742469435341
290 0.006206654216051098 0.0018871853096997157 -0.002040294199724089
821 0.004039023581664123 0.005375620443059213 -0.0020485561828047496
2336 -0.01200738607840216 0.001397416973069494 0.001055905704306858
846 -0.006388661869374881 0.010669778942712585 0.0007875970383101256
820 -0.004225211792002747 0.0008098630306762558 0.0033966297425834908
838 -0.00457374348944243 -0.012805761537765107 0.0018862194734864971
822 0.0038381485495491722 -0.0018991208164191088 0.004553505183725275
819 0.005568507695579702 -0.005573918109508328 0.003440126538570557
833 0.008789533764347322 0.007909459543057086 -0.0029102418800759033
814 -0.0013253854167452222 0.0028072495023613708 -0.0013547250404993092
836 -0.0069551196401424755 -0.0017158703007261284 0.00782934927526417
823 0.007251366705295515 -1.6795190699377162e-05 0.006298185240699719
2089 0.000846849407984605 0.005716005515997489 0.002143823038061014
2105 -0.005542409069070037 -0.02171343146123148 0.022435586431262273
282 0.013664942385018782 -0.02582278049393041 -0.007318611368897164
2091 -0.00021632486545545543 0.002384563741925827 -0.010139533233924148
733 0.021205397301648186 -0.018489190209013122 -0.02709085768956494
589 0.0005121422659067755 -0.002574744816580688 0.003468870452800493
588 0.008773693962525583 -0.0045894739051576434 -0.0009307109191222222
607 0.013084164860586158 0.02214920588401816 -0.018128026679669524
590 -0.0008913017998489619 -0.0035242770581478595 -0.004406688306659408
591 0.010632262308255562 -0.0014920579255198517 0.004800122723697041
592 0.006417373060918333 -0.0018546855425616061 0.0012124653360898142
291 0.00010667962969725294 -0.0036778052641090694 0.005932463403570306
289 0.006127104318941577 0.005089293707888203 0.002612093851034343
272 0.0015695714050059067 -6.418391353974406e-05 -0.0021823952968386333
307 0.0033289249232474893 0.010082959649284639 0.008423965327866115
274 -0.0013462419155508686 0.005326102279984157 0.001877792524079361
732 0.00811004968359319 0.005710295474628549 -0.015171323579041014
725 0.0011304386706689645 0.002593944064141906 -0.002670443873102386
2325 -0.036945559711088635 0.0012952183441498667 0.012076638926796083
2308 0.00010245803958997718 0.0006437923649299377 -0.000404482930698185
2023 -0.0026767076595045117 0.00039322112727724817 -0.0035925591522882835
2015 0.00663218255937656 0.004920240857596157 -0.001354167778723679
818 -0.0010502688655266606 -0.001497126722417687 -0.007750596875029211
835 -0.00905950691824127 0.0012103171402484774 0.003765729844682211
593 0.0006874690374862449 0.0052365246097481714 -0.004448803988732021
2031 0.012848719937546806 0.006567103127805787 0.007143707897456218
815 0.0016702308556444487 0.0022209960289217593 0.0020681152988856494
608 -0.027180519743515926 -0.023056580108249545 0.007434863182457514
816 -0.008147098773945486 0.0030874377472352526 -0.0023647369937679283
852 -0.0024611753155410056 0.0042907165128239595 0.0022997107017538126
869 -0.008980701166034286 0.0041730728946006304 -0.005774171330602115
853 -0.004881166755326144 0.0047873883394198204 0.001621777544929653
2324 -0.011281157690394245 0.001651716251550117 0.007257750819151003
2309 0.0029230807692458 -0.007284695792709775 0.0006925211527574356
598 0.0010237123167928979 -0.0042046124270436 0.006187566752114122
834 0.013434436571430957 -0.019596387026572865 -0.014336324411902315
599 -0.003027353114687336 -0.00041768912497821723 0.00010666035793554428
849 0.0007643354650861268 -0.006875117471411835 0.006871249507199168
851 0.01075342501066807 0.0021944794765641497 -0.004812323835844971
817 -0.0018974924447509155 -0.0032515173523754255 0.008582745832245218
867 0.00018041376482613212 0.002920935704689613 -0.007159239708011977
848 -0.007490420777133276 -0.0034074658475146745 -0.002509754578882613
847 -0.0049938637298132015 0.0017123564866096878 -0.00401008900802814
597 0.0025824582787180674 -0.001939715783057645 0.004688541313839932
866 0.006795318370613352 -0.007964077251539844 0.004237975044836358
873 0.0016800080486565358 0.02408803962423878 0.02677439198024632
600 0.0001223283826529787 0.0010455713415661563 -0.0017078903115591126
610 0.008333670742718817 -0.017677792063311694 0.0016577428307370883
854 -0.00449909334857329 -0.006411145911704464 -0.005216379596785508
872 -0.006117966961955338 -0.01836661699227624 0.004424735713162638
855 0.004205287618200393 -0.0004831748287004211 0.000770933599345088
595 -0.007578436418721514 -0.0016263723005763666 -0.005022621508134963
594 -0.0054751687680011825 -0.004183518007078894 0.002685457278060811
700 0.0016527047156046943 0.006738004071195095 -0.00023923864445622722
596 -0.005038267905578806 0.0008993873089437882 0.0030114606854537537
609 0.0168929810322884 -0.013195992075173775 0.00026804791178653613
333 -0.006480476344459212 0.03353046471944397 -0.025326366491283482
233 0.0018346165648411563 0.018286752828679663 -0.005049086591092754
865 0.002713035129399526 0.0016238972972033477 -0.003098688115530504
864 -0.003977034399493324 0.0020385582813642737 -9.25883069822167e-05
856 0.001389277838012341 0.0016059349208511079 -0.00997847608519454
857 0.002446090674670445 -0.0036478903760881116 0.003587849465163321
870 0.015021555199919987 -0.011374682367270524 0.029248724891835148
862 -0.0026196708083846515 0.0004291397847306673 -0.0023802936497466396
859 0.006031942872557043 -0.0028660286906819605 0.001961761769043437
52 0.0018558882065782777 0.00825252909372528 -0.018763705498081627
229 -0.00923503563971465 -0.008756795749988297 0.01929700536592094
443 -0.01177131147446073 0.01322390701561226 0.020998246517116653
444 -0.017522869854128948 0.003951388175181193 -0.018771224874575592
445 0.007070152962756021 0.00019101760200577594 -0.0017742458218929918
435 -0.0027776668183403705 -0.0014280495815220608 -0.0035424644225642045
216 -0.0035681219652587736 -0.006413254699514405 0.001984028066572551
217 -0.005523899054226789 -0.0021791560332222832 -0.00032854667872400986
230 0.00138868095987793 -0.004399124530228592 -0.002040397160793611
860 0.0013224875824723121 -0.0037783102116404348 -0.002927835464454898
442 -0.0049651616607024815 0.004731013954322572 0.01031621039803942
433 0.0043108173829338094 0.0019208876341769252 0.002227378423555998
432 8.848320312665373e-05 -0.0014641675185308992 0.008263288950603529
45 -0.0022474265435289023 0.004986670719363698 0.0010227446790290345
30 -0.004673566907082631 0.0061621673026392735 0.008690759724553267
46 0.0023994170232731213 0.0017459386790545381 0.003846820463151442
29 -0.004362678110922576 -0.0006338937704448437 -0.0012338315420001387
858 0.0048555196806103615 -0.0007786868626177301 -0.004431605321935633
446 0.010789975222241064 0.03263763772570945 -0.0007097602516673762
434 -0.004857960267773817 -0.0008627998811812132 -0.007466912959179955
437 -0.0026658434014690743 0.006623507675233195 -0.0013269915215738922
436 2.64021160718805e-05 -0.00011558209082899545 -0.01057050004851799
28 -0.0006908736953693215 3.310692055872756e-05 -0.0054218902689583985
431 0.0048293207219855605 -0.0056094092501394474 0.0035943351243814406
26 0.0055130694273319136 -0.005953761657916811 0.001400969595077172
27 0.0007983423821063329 -0.008898382190033305 -0.005209634073501961
11 0.002636444603646884 0.004458922976707407 -0.0011824828305467359
10 -0.00048510463022130644 0.004047345407513902 -0.00038972413935549615
9 -0.0006326566458329092 -0.002089824915492759 0.000370753748001565
871 -0.016808767965378616 0.006037867566170611 0.01192290792940689
861 0.0032121445995507377 0.005428075982969391 0.004866426460290825
8 0.006205596198777608 -0.00235933339990023 -0.0012672649252358516
21 0.009307632530801316 0.005850030295028813 0.010976452511566058
20 0.008256557788994857 0.0054087810001176625 -0.0011693404634589867
22 0.0064623601234699846 0.008491158816830062 0.018651515187172726
12 -0.0013558821980034508 -0.0034472173310057305 -0.0038441342985093205
237 -0.0029292650644847026 -0.0016596770803038515 0.006947143021991556
13 0.008297989921879896 -0.0012974197281065082 0.005060204423643566
7 -0.0009713381480643732 -0.008302340684346035 0.0002949901092556446
23 0.02244068854281131 -0.006960719319495293 0.011391622838097937
1815 -0.021945419491631372 -0.015669209272994908 0.024390035836961508
2574 -0.004570181327210857 -0.017436266107575708 -0.0036173329429006543
313 -0.0068911662596497746 0.009321198306892799 -0.004464246205498759
5 0.0051874002534938075 -0.0003153165924596518 0.006488573621057113
15 0.0036399432500254596 0.0014768915681854593 -0.0028721552624693353
25 -0.006212724776669128 0.012388389675419983 0.013307937871102047
281 0.011538953065719724 -0.016903325267601754 0.024919259965582773
6 0.0018260400154168593 0.0019532742733051277 0.002378429774538974
339 0.0032715023580922194 0.00517986044626269 0.0001881953395652307
127 0.0009351976250413607 -0.0035788388584541424 -0.0015621673780786707
117 -0.009032788770804462 0.000928556582577359 -0.002840043162458026
135 -0.009827569175295666 -0.007141807914485964 -0.016964156539464474
130 0.016843757925307484 -0.02144341005255887 -0.003500540004309845
1814 0.01308259697044115 0.007851406827172357 -0.0035462819689887903
118 -0.0024926418786711574 0.0007763601708582059 -0.00327328279834738
1813 0.012061306591395045 0.008339720323811629 -0.006899118935271204
271 -0.001940918765599433 0.000637046136164545 0.0025126058026774373
1800 -0.0008799024373069293 0.006579783068296234 0.0032009476810259323
1812 -0.0011458174593110646 -0.008989935248653777 -0.008883234409499598
1799 0.0061918241804298545 -0.002321582444095435 -0.007080788443764464
1797 0.0007257734140695528 -0.0012076826043976251 0.0091069160167244
1798 -0.0021250764747883758 0.0051126210691730374 0.0007577128062954911
340 0.003343986790655949 -0.004422002758119692 -0.002612126227042677
288 -6.235987214920265e-05 -0.004510439861461287 0.0048441543153545565
134 0.024757427605830027 -3.793256298537644e-05 -0.00902695322969878
132 0.019717207989193117 0.015535736481116644 -0.012071569238867173
126 -0.002405350554741013 0.0032267433440639898 -0.00722579904613126
287 0.0013891955416136764 -0.002156181702514173 -0.0027435078665621502
122 -0.0015936084783639765 0.001882513358281986 0.0016118718568211244
120 -0.0024044857447948847 -0.003292402335049522 -0.0020784220375153813
121 -0.0023748415866057687 -0.0078114393139519225 0.00790157853972217
131 0.044343124594000714 0.007384076774341661 0.0031268113551916324
119 0.001858638959234971 0.00869216720235608 0.00789111427965994
283 0.029280335275385504 -0.02030737165583863 -0.0012984798486931186
141 -0.0031053034578481706 0.00700142288987419 -0.0040315713539354975
124 0.010516032547330047 0.0013064659500578776 -0.0015039133981245487
125 -0.0006739621951734532 0.0029511367790144307 -0.0017829324773002587
139 -0.00118353161715635 0.0030326234937189432 -0.0031475197651752084
140 0.0014975651668674823 0.00208610544537233 -0.0011615547564286306
24 -0.022057063913286334 0.004642248675475054 0.009784810444622493
14 0.005563095963941468 0.0034615653299579253 0.0027797442706351716
123 0.0031208032198998467 0.0037643682482832726 -0.002494019046578622
273 0.008954303899086585 0.003937686535979701 -0.00016569409967291765
275 0.0006853464491395727 -0.00046193929554988765 0.006586028059714166
2108 -0.016842765471933762 -0.017724079647715642 -0.027530563277279395
270 0.013956662571508242 -0.011005189902134085 0.0010204444793672565
284 0.0020123344241306 0.00396236541595661 -0.038144687096890055
276 0.0005240394106045852 0.0005803788483566588 0.0020560455934372683
269 -0.0009391231970737839 -0.001302164110284464 0.004482296907386149
829 -0.0007325514297440247 -0.0024568165354895114 -0.00320484073323626
1315 0.0012561441522757305 0.0007583208987711911 0.0008567707546444866
1043 -0.00367831134646106 0.0008986676944894708 -0.0006675340980051893
1057 -0.0017213502032822204 0.007817554344959355 -0.017815615512653937
1042 -0.005612510616893651 -0.0004971224205414085 -0.0008501839876038062
1041 0.0035389328182773468 -0.0075066563625095775 -0.007674938908081555
1056 -0.023850990085846676 0.023188480330026687 0.040356546022184636
1040 -0.003680557777158296 0.006978963439781089 0.007470857447087749
1283 -0.03477921701978381 -0.003935836313834103 -0.017476966434658528
1296 0.003957863591160915 -0.0009655165462656262 0.005121428954660629
1625 0.005218274976085216 -0.003623235455635245 0.005751663916970651
1624 0.0004821769220859566 0.0046204337179252255 -0.00856410050879734
1632 -0.004947657574312395 -0.014280535449944811 -0.03280190363226753
1633 -0.026066184661368858 0.007464900059872175 -0.02957690981126665
1612 -0.0008065906187405628 0.0030809853052864928 -0.0025502078774671056
1297 -0.001827240635280986 0.009415216131057268 -0.004098068451813902
1316 -0.0008251143908524213 0.004520943430463207 0.004425932870928308
1264 0.006307833320087472 -0.004377410840212109 0.001037829220941558
1263 -0.0024823676724292166 -0.000709597379920644 -0.001071808517856801
1266 -0.0005891515948480777 -0.0005064850154707858 -0.005594141822915668
1265 -0.0033916671655947676 0.0039693136230525864 0.001271344169340005
1298 0.004179449315613251 0.00042650339522677736 0.004437069735293326
1300 0.003260774567385364 -0.005881813387171711 -0.00638333558816318
1299 0.002268156393103371 -0.00010126757946144731 -0.0038101693672088917
1282 0.0039686305083751205 -0.00799152352794909 0.007494914595432075
1267 0.005882859880893287 0.002494788905662976 0.0006500477146672432
1284 -0.0056438685888452605 -0.01367399812435974 0.027695349560222314
1251 -0.0037677591010855933 -0.003530704065087075 0.0026685049248194913
1262 0.0004250662985772743 0.004955284250835859 0.0071504878278370885
1295 -0.011017342156731334 0.010891076603317833 0.02379212723856172
1250 0.005684608166913748 -0.005096516226359177 0.0021587226855404023
1611 -0.0032400299126966268 0.008228124169095354 -0.002204755497156692
1268 -0.0020485265234270384 0.002919378069340298 0.004193741642042338
1285 0.00526849457237564 0.02329826361093825 -0.016279191370943913
1248 0.005749759382020199 8.139022663881434e-05 0.010633848916056723
1615 -0.005462022185504338 -0.004487882824982561 0.007043603346942126
1617 0.004660964410319993 -0.0004415469252626067 0.00016929283871664386
1598 -0.000820915848458803 0.001574740574914923 0.0023680814334623755
1597 0.0072626354345831316 0.0032176951482286746 -0.003077753686986925
1303 -0.0027519928570996534 -0.0010669735783777588 -8.078995396149936e-05
1269 0.0007894133521776074 -0.0035442929670531807 0.006583809079246726
1054 -0.00025184634602187946 -0.0016557444652256414 0.0017702443282312812
1322 -0.03173070255199799 -0.027715422585789483 -0.0069536291416923265
1618 -0.0022886413376133224 -0.0029179169213985655 -0.002148694752340869
1628 -0.005650883415061835 0.0016225422407020703 0.002579649452669532
2000 -0.0033192981509331115 -0.008250909826820578 -0.0009772821798699218
1995 0.007146155000927078 0.0058250122735808195 0.005329242274213624
1060 0.006334824099560265 0.029367842716715085 -0.0030685936064450076
1044 -0.002515164039417499 0.003260762508171604 -0.009979507588658483
1053 -0.004089891726078863 0.005832539183975142 -0.00954676475999339
2007 0.0007798981493246515 0.008543252005678613 -0.023766704981623265
1994 0.00022705421449554649 -0.006204377768613246 9.645412857788519e-05
2001 -0.005318947879994838 0.0022753136270692222 -0.002110762695832685
1321 -0.01202891241121048 0.0010238306891647774 0.014359235504466343
1314 0.003081153293756491 -0.0022362519274747245 -0.0017367424569585184
1993 0.0029907160210748108 -0.0004071069234735523 0.003138022600131465
1992 0.000878722104677214 0.008630185509468782 0.0005349232539538592
1047 -0.002111534583071538 0.002406421015891912 -0.0025826633099634844
1312 -0.0015438392434003567 -0.0025447303350664956 0.0024054678084226336
1338 -0.0016576352953774321 0.03923701930347902 0.017182989611032616
1325 -0.0013393868265684622 0.006157767286532003 -0.0004511283539174012
1311 -0.0009701049002988166 -0.0041058273119459945 0.004410794117352705
2006 0.005664283356512148 -0.03455356335707544 -0.010364758445003345
1048 -0.0033725591963088375 -0.009826586909034669 0.002150327206090944
1324 0.002006003350945518 -0.001752156682572359 -0.006351656381436563
1323 0.0013611592297941312 -0.007856103898992403 -0.006420683224546554
1052 0.005350019970955311 -0.004114058579294894 0.0014959074580736796
1051 -0.0005764359324576467 -0.0027983133751647627 0.007217181855333353
1050 0.008662643770445932 -0.004427480492305033 -0.0002098109852912936
1062 0.0025030121408782646 -0.0012534434385984984 -0.0032736298162008093
1063 -0.00036959838488711513 -0.0035365404419220397 -0.0007983040226384659
1076 0.00563483418033563 0.0037212318853251853 -0.004674013387058788
1619 7.786368548730701e-05 -0.0016181392679297663 -0.0005411213310745337
1337 -0.008684965621396666 -0.0026072516628883025 0.0025135791175660608
1313 0.0010057631984298138 0.003963553011423743 0.003725636662624486
1045 -0.0010506710448940615 -0.0003399742230404844 0.008204770145522587
1049 0.00046493670836516925 0.0027419650090622248 -0.002221363329745224
2009 0.005369225424433179 -0.016013618783836225 0.00026882426479049284
1075 0.002266196172383928 0.004516824601306173 0.005873040841165437
1629 -0.028621532068350643 0.013304718478946377 0.019837753828033555
1336 -0.0007656641624368735 0.0037730286187824752 0.0061730825393028895
1046 -0.007060252282099284 0.00025499005223771174 -0.0022893460020070276
1083 0.005335464210439277 -0.0019053148117820495 -0.02989542729101168
1084 -0.015457887688095454 0.017435512075592116 -0.028945031809982466
1077 -0.005529145078032613 0.0006813661729250205 -0.01404401785900485
1064 -0.00514773655658789 0.0011386724645839725 0.012642044592203652
1879 0.02059405658450164 -0.011855078389652374 -0.007199207616820889
1309 -0.005114780005532326 0.0007322245996263979 0.005215191071524265
1058 -0.021853361521559523 0.014485783321800864 0.01200669699131498
1865 0.0029246815574332976 -0.0038417562780374876 0.00715110686936446
1991 0.00028801777553120697 0.0021226664320498074 -0.0010653626015787224
1326 0.001782165419874925 -0.0075564340032655344 0.011205993333942269
1347 0.019779844300311468 0.0023982326533651278 0.00987415401268586
2242 0.020950990600816094 -0.02965221362308095 0.002147869031723739
1829 -0.0009562402282132724 -0.006595458535863035 0.0027849127376951507
2008 0.0012784182406716648 -0.001116274755737116 0.009016892907992322
1848 -0.01998638671037707 -0.034736091330211445 0.013003137119390358
2129 0.028361106958194854 -0.013231348036871348 0.011295559631491366
2240 0.006600048448934989 -0.007669463297575343 -0.0017174271816345157
2002 -0.003999792543271296 0.0012339478660386553 -0.003223868613164187
1990 -0.0008413865441281799 0.0014209919895143439 0.005194940016380434
2005 -0.012573470772978068 -0.011961006594137402 -0.023553775368059943
240 0.0010991581461432455 -0.0064525814412295015 0.0005469800709755304
239 -0.006863849289699367 0.0006506952829045489 -0.0052712719805264865
1830 0.012892193333675788 -0.0015478210976595825 0.0014130954722621613
1339 -0.024857887815983512 -0.00219714861763819 0.025526992960882053
1327 -0.0017213837450546683 0.00040345813308938834 -0.002309165137644889
1847 -0.012386948855521707 -0.006674836222789654 -0.013805877782377496
1840 0.004814869309667755 -0.0023009360062116566 0.0009569484796412242
1831 0.005988444604591984 -0.012565704736271058 0.004490915781330246
1989 0.001129998101226939 -0.007977319178553046 -0.0005923040355271009
1988 -0.004424178553438801 -0.0009790677230307647 0.005301990665919127
2121 0.0007072202558726611 0.001161987111862641 0.005707729467525026
2130 -0.006169475222444684 -0.00212658467406083 -0.017448120333828403
1832 0.005734882425684121 -0.0025585969619514614 0.002731171682461793
1882 0.026910149092994193 -0.01768688408142561 0.013074674791192838
1869 -0.0004712310204023349 0.006498041754603877 0.005209483147002544
1838 -0.008817651891354085 -0.00023557076478887857 0.0007645307761708372
1837 0.00014677794622870426 -0.004980721335285478 0.00496549481185643
1850 -0.0014841039208353505 -0.0012889310925411899 0.0007938544429876288
1839 -0.001869584222781032 -0.00828715468955868 0.002115783066089504
1849 -0.005777580745010323 0.001824073270984856 -0.007872721680457639
1834 -0.004432684699450634 -7.581649356055135e-05 0.0007206830572498559
1835 -0.002573472082441273 0.001435296206043422 0.007186590979654686
1836 0.00328059271173942 -0.0033384669134105625 -0.002253092075756166
1851 -0.003823582181308333 -0.00013193492539909934 -0.005376775857723129
258 -0.029590735994618297 -0.007364133116886754 0.013396343406217643
1870 0.017761213658013704 -0.02954708606514962 0.005150092808773607
2122 -4.2194387661510114e-05 0.0017128906646253356 -0.003806530606088717
1833 -0.001879449579427177 0.004263366042995523 0.0035990543432822776
1846 0.02572349944880646 0.01306764710895685 -0.008986846454172588
2119 -0.006176292468136134 -0.003651981591136582 -0.0008187037073299611
2134 -0.0017359472290313094 0.007652291235496575 0.007400420169563816
2120 0.00654188520826705 0.0023250879173598487 -4.4312277494830844e-05
1328 0.001496840099971787 -0.004225473014065283 0.0022656947650610856
1878 -0.020831513586434192 0.008315805227759026 0.014649687336325351
1852 0.0010173951823013708 -0.000671630301897419 0.0010430867475004352
1872 0.005405974314750441 -0.032304516186575545 0.0026262251336163314
2116 -0.006288455383304716 0.0024032920041499894 -0.0007582487715964972
1855 -0.004599106177183383 -0.0008515550785797168 -0.006513252700016279
2133 0.0031761329294793614 0.001093142400917434 -0.0063890907083234754
242 -0.0019176969493074213 8.701906949511055e-05 -0.007547006828452508
241 -0.0051201416425791565 0.003461536757080945 -0.00026410430388107344
1340 0.015057915523001909 -0.03170622356955207 -0.012736520836585477
1913 -0.0014256746183233884 -0.002071684749703156 -0.002329333427206624
1925 -0.012574836872518157 0.026167420094804546 -0.0002852220856276025
2118 -0.0017675279467039213 -0.0013625302240769777 0.0022713694909004363
2128 0.004494975834014533 -0.004538875387763628 -0.006625233225692866
2115 -0.002891288916833622 0.0029952994856507296 0.004853178896842489
2117 -0.00500099193377285 -0.006198016200022096 0.0019289373409559494
1897 4.3317472323913954e-05 0.007500503988414691 0.0019092254520506526
1271 0.0044258820647430485 0.00714695168665897 -0.0028893098547265765
2132 -0.001505134117248966 -0.030741637742919718 0.010936429241473162
2127 -0.005265617022814596 -0.021667642751767007 -0.012626492269714174
1924 0.00958567288315359 -0.005350879380641579 0.013439853198592358
1932 -0.021852367573040363 -0.0038696029098997634 0.0024988509318261964
2114 -0.004172805079338252 0.0020643065520397955 0.0014338550713222959
2131 0.014884986923057928 -0.018338858470244496 -0.012018646302603882
2123 0.0034972697879025144 -0.006177070218118807 -0.005915136902857372
1912 -0.008191382893042729 -0.0009410348611855811 0.0016883964995143487
1911 -0.004804389393904896 0.002312029854930443 -0.003171514473848091
1910 -0.003814631163724823 -0.0033275566820620095 -0.004017977577316053
1899 0.001304914226568866 -0.009178533691202157 0.0004223118891700459
1898 -0.0018053025764853162 -0.004820512647740973 -0.0014982465828708774
1896 -0.0027491493352689135 -0.0018965235899690036 -0.00046541545713002025
2124 0.008309604045603276 0.006356569151613514 0.0017057703758072524
1286 0.011324168082112954 -0.004862351924148523 -0.017606639108221734
1272 -0.003394864740270493 -0.0007831372162774744 0.009609387869460955
1908 -0.009394321309288323 0.004922405243838161 0.009124490075184122
1900 -0.009970003049430123 0.005666345480363547 -0.006999242502357255
1895 -0.00494764363574937 -0.00033598539478887386 -0.0025075017491923836
1901 -0.00047748772387823287 -0.009999491549421749 -0.010309522868818873
1894 0.0023530019115175858 -0.004100391588693307 -0.004818502012426255
1270 0.004202491340404237 -0.00031857059867125673 -0.0010212875749899888
1287 -0.00999281514333118 -0.025338393921611805 -0.01470136849207717
1737 -0.018686231769257558 0.033827036546383055 0.014755800061555005
1738 -0.01796646729144662 0.022150151937219954 0.020382853943041273
1736 -0.0014093133325432704 -0.014745625846249541 -0.011649504799952443
1722 -0.0037284232821776704 0.010139721553081288 -0.003945776072460857
1721 -0.0027467123865214838 -3.695114379693107e-05 -0.002263722784554563
1743 0.005415833539260739 -0.01977823938738031 -0.004547226088866917
1892 0.0036336700618321053 -0.0007950569914528201 -0.005349325029754669
1723 -0.005023847482322373 0.0013189672460615922 -0.0039802636048977035
1730 0.009541085041656405 -0.0009547679800355291 -0.001121484643524733
1735 0.017012337916175558 0.020742347471445596 0.016241095493859346
1728 0.000482263392863625 -0.0013383475020127004 -0.0028720178674149863
1729 -0.0009292162232237384 -0.004339444971249916 0.008625814688929737
1742 0.006347245506015021 0.026004677543139378 -0.007063791653584475
1252 -0.0040975951424997055 0.0021672726234770352 0.004789122796430424
1294 0.011081663710938713 -0.0019271557437124298 -0.0009069122176726926
1061 -0.013366124451191728 -0.026106393424210932 -0.006211989789067751
1055 -0.0030352142238922472 -0.011413133403002143 -0.006961060353925453
1039 -0.0011708667121176771 -0.005809378500255952 0.00649536998623297
1148 -0.004191480403574538 0.0047630919094208855 0.0025882414230434096
1149 -0.00027905691138867326 -0.003092818189666531 0.0034268538072467557
1162 0.005288843187307784 0.010089044262335653 -0.0061098450117355345
1163 0.003761668350619632 0.0022682806490788056 0.00310206148044121
1176 -0.004002664284388474 0.007131112163479799 0.0018803355642431395
1022 -0.0001766360489833933 0.0039608595188268415 -0.00597348102491768
1036 -0.0011397999685000828 0.006207371787640034 0.00069346052767095
1020 -0.004854702085621761 -0.004908354034061173 0.0021555050693718154
1030 -0.02866992981547754 -0.0027295379874353394 -0.04415160252256498
1035 0.00013896381245327887 -0.0021308683965935576 -0.00019322387702780527
1021 -0.0036177189243913103 0.0033171272552938126 -0.0003212823986466974
1023 0.0016140245020280929 -0.0014908260401707714 0.0026850131049851057
1024 0.0033198856469698395 -0.008061371437373671 -0.0035531912474453986
1037 0.002759414730176988 0.002448652710073965 -0.002207748383467631
1031 0.013222275791694995 -0.027937806510196995 0.016454664445364815
1184 -0.01446264078647768 0.003389699829990716 -0.008357683575946712
1038 -0.005892445795018547 -0.0065779756148493925 0.0005197744021315802
919 0.013671957887321808 0.03204537078017807 0.014617922706238044
1019 0.0001642123180684297 -0.00016274749025633144 -0.007078065623912377
1029 0.004750412293118103 0.004340259299006475 0.011192375157457541
918 -0.017798627479504704 -0.007200943681937401 0.010581917518560519
906 0.0026498423392776697 0.004851947881976082 0.005337662728589758
907 -0.0018816539004880989 0.004432712616295566 0.005254730723084309
2636 0.011073024050510572 0.005216306675677315 -0.027212042318708822
908 0.010163088756389988 -0.005072745096410364 -0.005407462582326097
1183 0.0058400428685860956 -0.012569438768385122 -0.01208119569365865
2620 -0.00461716922922887 0.002305580052609471 -0.001650164852651154
1175 0.0019890628622030644 -0.002451655588561425 0.002954478926576185
1164 0.0020513771248275715 0.004477068212489869 0.007461214703497128
1018 -0.004059795850240116 -0.003927806269635831 -0.0031880323837933404
1260 -0.0003487817954609669 0.018117960826523245 -0.0075526966299334156
910 0.0014105613139094955 0.002158608611109167 -0.003883917321666959
924 3.8427614993926746e-05 -0.005934211203043014 -0.005183185158638546
909 0.004215680935239526 0.0008441490587133517 -0.002802559309909899
927 -0.0034498453625582395 -0.003676125188711384 -0.0010177166613864394
926 -0.004610839495472852 0.003374989989285293 -0.0017181996349182297
1182 -0.0024344163420900074 -0.017303987406507067 -0.014005597003800932
1253 0.002402001861797195 0.0040680086975988655 0.001439715154304852
1257 -0.01029357365033154 -0.025476721138410353 0.0008735151195937187
920 0.0014618573982131606 0.005776766300901568 0.00045566982385809634
925 0.004949422163479401 -0.0033486547366323094 -0.0008972292699324094
1135 0.003803350655192235 -0.0006990588494002099 0.0016447099309949361
905 0.0009108798221091641 0.006970215144204222 -0.007332524773081882
911 0.008113054160273213 0.005879310361770213 0.003229827573742079
1017 0.005273603664317303 0.005660311273661734 0.0037203003326960094
1431 0.009809477876858909 0.03753206171476306 0.007169817327648729
1059 0.016677926614514983 0.00819507418294731 -0.03317726483113408
1426 0.005609727636002923 0.002714140410881975 -0.005631854596150217
1432 -0.007178561285985489 0.01928022737962256 0.007778926110312931
945 -0.022709209773104776 0.004688914353241421 0.03972224755352764
928 -0.002794531828935848 0.0031533885435579647 0.011964519319593324
929 0.0002894983269361276 0.001997689139506386 -0.00036466022054325867
944 -0.0011773392862539428 0.006714651595729176 0.0009006425621997398
946 0.002985331560464722 -0.012629783514043447 0.00037832848663360916
930 -0.00833527002292777 -0.0009022097137781045 0.0010844770672386664
931 -0.0009854560628879037 -0.0013937909086138409 -0.0018800964172326353
943 0.00507798520561733 -0.012337280590622317 0.0013623093659073486
1138 -0.0032110715701532243 0.0057535180407363145 0.0012939926590125603
1137 0.007112781625734054 0.016347646570487134 0.0015084991497731192
1130 0.017283281992891242 0.0007743552194889189 -0.024028006836240803
1136 0.007529489720155816 0.00305092683817387 0.003609685789389598
1122 0.003893762278301888 0.0040547327536482195 -0.005077638942218187
932 0.001994081177201661 -0.0035869641206579387 0.00252045913338906
950 0.003652216382157925 0.039716805231092916 0.006137469931660459
947 -0.018032227354730132 0.0050493956282339665 -0.007583644282056068
1120 -0.0008967591111416392 -0.0032939500045329963 -0.0019608305568105614
1129 -0.02485097788105147 -0.013721170713777502 0.00915365973668922
1121 -0.000858870993967743 0.008211633883434781 -0.004433561118865463
1119 0.005786010985362211 -0.0001527495199540271 0.0024101232175777944
933 0.0016761936040253402 0.00187098365134297 -0.005835064252213518
934 0.0008106413690042456 0.0008733267868641965 -0.0005698910961280777
1127 -0.012843981620188552 0.005565032568692978 -0.009992924499728419
949 -0.014543332592299557 0.00100714714184816 0.009491078736453154
942 0.0036757515904225343 -0.005499932419031829 0.003344283946657467
2004 -0.013620126766217593 -0.009105822184142479 -0.011744675328543685
2003 -0.0020471312476533342 0.0015632631742926062 0.004919065120085593
366 -0.002279815079867882 -0.003465245587275137 -0.009566118165465072
1845 -0.007211430456398683 -0.00810902417251208 0.001815295491639305
1966 0.0026150434544832965 0.004579828892198291 -0.0030399705091036207
1967 -0.009238208467590112 0.002496491995677841 0.0015214013633191473
1987 -0.00189170788397107 0.005879608467670665 -0.0038395389369976136
1983 -0.0012965435945951258 -0.004094600327343158 0.0037831351006791195
1979 0.008563341601880159 0.029796224990286953 0.002436318046999151
1984 -0.0008803662275352547 0.002402669566899562 -0.004702538822953416
1971 0.0004946233603978453 0.004481522391461809 -0.004105333895408261
1972 -0.005528627181401914 0.0006580249673133906 -0.006926282575807197
1968 -0.0014429804804024628 -0.0035691334214520113 -0.000747035518127133
1969 -0.007829288483696132 -5.583233550947408e-05 0.0003206800392178059
1978 0.0008378924518960553 -0.0013075514994331733 0.027290618642661878
1970 0.010689743632473308 -0.004453637245062975 -0.0015199641702079588
1985 -0.0014895852879302416 -0.0018496668628916449 -0.0019467074002549514
1986 0.0010290839631425803 -0.0053761924128868125 -0.004975269656857487
401 0.001444049719361768 -0.000699339464117113 1.053132820169447e-05
400 0.0018863552018834851 0.00019651881731655338 -0.0029449263679782764
419 -0.01068968004561956 -0.0015334280864926688 0.0007938175867022597
367 -0.0028546538034872142 0.00394040746492401 0.009784467564984814
403 -0.006418829081687097 -0.003885768722254063 0.004350775070603816
368 -0.0034822014005785086 -0.007576340233738395 -0.004679274167415244
402 0.008335981782093457 0.005667853751299164 9.595424879265486e-05
420 0.0026928051354493747 -0.0048270899784706835 0.005927424186110354
404 -0.008598220834543036 0.0019403794942738125 0.00017663786623769046
1101 0.005459078379427986 0.0012624128874855148 -0.0016598462305535003
418 -0.0019235509517029257 0.0003964709662288234 -0.00039591803890683667
1281 -0.008890476425404149 0.0011166477727593714 -0.002441947139307957
2619 0.00448042704348726 0.011167148333743842 0.005376783723580428
2635 0.014693005512394976 -0.02512678260803852 -0.009672118763219715
2633 0.0027409457165084947 -0.02482280697051425 -0.012172009358832092
1166 0.012057964776134748 0.004442083363800394 -0.007143634377669094
370 -0.0019939399968542768 -0.0007962704142944646 0.0034709787535425344
1275 0.004526071269480814 0.001510556546072308 0.0012760034787643454
1720 0.0029967886269229352 -0.0006640379975829554 -0.0072395580493983215
371 -0.004627215388905213 0.0017810049009953542 -0.0025822805595821148
1739 -0.01437049780766229 0.03312656166468634 -0.013889736001413378
1273 0.0019919679694253667 -0.000951061798008992 -0.009633289957553238
1724 0.0006424571935421143 -0.0017996481552235845 0.001521548154220956
1725 -0.007722942370974861 0.0045053104857391245 0.0057529954776756684
1740 0.017834826365730538 0.002196792505534733 0.020981160636032274
1727 -0.0006507668142444246 -0.00010870259827559967 -0.004007504374247035
1726 -0.004437843675420064 -0.004852987075188647 -0.0017725981133421879
1741 -0.016331998640021383 0.02133725725679536 0.01692806997384502
1719 -0.0009207455230279493 -5.575917694018198e-05 -0.0032749788480581615
369 -0.004981663003541993 -0.0026983843544049397 -0.00529669550158079
386 -0.0068178265806970555 -0.003772687056118781 -0.008962631455104075
1290 0.005855659978477266 0.008456054230854748 0.003453297397692544
1274 -0.000605794454799223 0.0021570894356302637 0.0036502650400184796
1289 0.0020577463622183582 -0.008026793501600613 -0.0062030508487175735
1288 0.010896261262470688 -0.009475442282753321 -0.04712426733325354
1178 -0.00813675566018687 0.02338863978038435 -0.014711818926299408
1165 0.011491499939691402 -0.002109704988981461 0.001097156117716229
388 0.011235926746559254 -0.012761814813552683 0.0004888904068627722
389 -0.02507755763180858 0.0077892682324808196 -0.006644238944506243
1179 0.006971758639801796 0.00020733774752362342 0.02056438506804288
374 -0.0007483402200619242 0.0008397964983566241 0.0056109523105384255
1167 -0.0023697326821527564 -5.598608717060952e-05 0.0018782579952133188
1169 0.0017458784657098066 -0.0019536235854453153 0.009385644319058204
1168 0.006959257952061732 0.000520106374124894 -0.009315007150447249
1174 0.002402991958177615 -0.005629935927138086 -0.0015220152406006761
1170 -0.0024542451255389866 -0.004251765409804279 0.00443057181312648
1173 0.004512918356166829 -0.0014718783102601 -0.0009928022629311331
373 -0.0016719335259172856 0.0007936579969317677 0.0002864070957644261
387 0.02228353118125601 0.015583968593723217 -0.009637516416668617
391 -0.02196181237470926 -0.010256426303572742 0.013321776273471947
375 -0.00465262735326065 -0.0011128084454132589 0.0058844950992619615
396 -0.00606689105397847 0.011910913459014497 -0.0007479393472775188
1180 0.0049303047028418055 0.005571884735231708 -0.018855653510967567
1171 0.007786029973371782 0.0014120239763679985 0.002607005465997438
1181 0.018828052952714634 0.005825443056867475 -0.025791884090272107
383 -0.00127595065232947 -0.004067395806463862 0.003012055604323115
382 -0.0009705080209281779 0.008963121486227283 0.000957813460145158
395 -0.026449512124508596 -0.03443261921571348 -0.0073743362535483425
376 0.0001648461893175262 0.000772336917212705 0.0019078507732391465
381 0.0012978394931650466 -0.0031174825036630726 0.013737906100232473
390 -0.009678066013692564 -0.009100190243071373 -0.019003059414234514
1718 -0.0025664951845602436 0.011191527942871747 -0.0013559946648793776
785 0.016006462375250587 8.919802617943581e-05 0.0010323056023323314
2642 -0.014462177902494445 -0.01702232761620921 0.0012267195747061516
2618 -0.005509217494999721 -0.010481001651811801 0.0019351589664395152
904 -0.0009078166264409513 -0.00804601033081085 -0.0002398701158647028
902 -0.0005774789748761249 -0.001933608952902514 0.0014504868450225367
2623 -2.9178185907288178e-05 0.0007310852622025321 0.001011800679657616
2632 0.008945526189878032 0.018780917977999648 -0.005005994260729649
2638 -0.010005522145198295 0.008879480204197607 -0.01593993740042469
921 0.0041959975632564475 -0.0023379250971609328 0.022951588909386266
2616 -0.003287541866586185 0.0017199106359294788 0.0033659527809281747
917 -0.014934087700754294 -0.007089349822622852 -0.005121329483981048
2631 -0.01880171557338609 -0.017840037723043076 -0.002533780862121034
903 0.0037246063035748303 -0.0021218428471526185 0.00029328161142439213
2614 0.007527825346056365 -0.011812792338376333 0.0008998671725661867
2612 0.001504480530541728 0.001169249094125631 0.0035929718228635403
2615 -0.0010159306892665245 -0.002765146284197971 -0.0005407577773060555
2611 0.008098757824679517 0.00659961102410258 0.0005603909627345564
2646 0.002293492434423506 0.0003146803508625384 0.0008104209062265221
2613 0.0009982400013412876 5.543261413932028e-05 -0.0005762576097056651
2644 -0.004565989504814316 0.00906120782513685 -0.0043216805327263635
2643 -0.0021192343958461694 -0.004903308719976134 0.003616151190423141
2669 0.006703120635556958 0.00871557304687262 -0.0013107027641325933
2406 -0.02232709480528362 0.02917068938965857 0.004234724177504183
2396 -0.0024094529574084475 0.005729213617737008 0.0019043204697628976
2405 0.008264683976732929 0.010812626101784416 -0.024705585786684026
2393 -0.004628264256818649 0.0031882614875714268 0.0020532035583515755
757 -0.018677338113759816 0.012570450588488559 0.01527498121134485
2392 -0.0010643497273112412 -0.0021981908873042366 -0.005647685385231806
2395 -0.004671028773796012 -0.0022564266652883207 -0.004021721214489924
2394 0.001810815456889734 0.0004741781639553497 -0.004161979052222356
2663 -0.00043219586557635876 -0.009412477396646815 -0.0024575332172892977
2662 0.005751884990787992 0.00017668893801392588 -0.0064497841581959425
2645 -0.006767320443216445 -0.002540846559557359 0.0034534075097375264
2647 0.0006417862007534871 0.0007690235868876711 -0.0027636669382541316
2650 0.008038803327271504 0.0013567156551102663 -0.0005724220338181328
2629 0.0014749615018597169 0.0017044275285996587 0.002408840796090665
2391 -0.0046074930250479635 0.0029021592541724275 0.005314510171041622
2621 0.007331805698996395 -0.002155702096398142 -0.001906813211645519
2622 -0.0018128405591501281 -0.007139063415127316 0.002706016546297021
741 0.004074534774119202 -0.0038077031640879654 -0.003391801961690326
2637 -0.0033954382951402714 0.0061996710084007 0.008417016523362816
581 0.008620043682873764 -0.02983259919049783 0.02424124467829124
2630 -0.00046870886351586225 -0.011481932068306258 0.011225315748512769
2610 -0.005443609098901034 -0.0035584740467153094 0.0034999879630770647
580 0.011669710741770223 -0.004565259383521025 -0.012501880882662577
2648 0.006693320844271447 0.00526579178712243 0.003057314762761353
2649 -0.00040355621959588603 0.0045346562397656645 -0.00025695017486303604
2424 0.012386771558758511 0.004326722392034472 0.002602267969143879
2651 -0.0005114735939809102 -0.00015978632879156348 -0.0012950714919339925
740 -0.004342666780908936 -0.00399552745559598 -0.0036987647133565494
739 -0.0012744352505427395 -0.0039968638475436245 0.0037883990235201186
2668 -0.01065727661859621 -0.0008356891247329053 0.0206230079897293
675 -0.0024896133601132776 0.012639907891271115 5.8489965764740113e-05
2664 0.0019549510294834755 -0.0023032835680367107 -0.0019101086747979792
456 0.005500008087231198 -0.003745442337557592 -0.0019458014420224061
472 0.009253277321552638 -0.010431675867322287 -0.02306108612756513
2665 0.013001559910435232 -0.011162985626146964 0.02123322951329028
686 -0.0016645858944547753 -0.000686558848441853 0.0009336753992833401
1118 0.0006838872008554986 0.0026123704318612635 0.00041865073836934235
1128 -0.006084505062789776 -0.01763762337587712 -0.02248254458103296
1117 0.001248562037026221 0.0024182009343217464 -0.0033364032381556076
682 -0.03115028580855116 0.015667693055820817 0.011553748266919904
668 -0.002195804624302397 -0.0002069727078960967 -0.00016028551868065444
669 -0.00774450049437002 -0.010481342872557682 0.001105656967791859
674 0.0004805618275767331 0.004198551126156697 0.0017811017987113221
680 0.010487998104965583 0.011098405556393498 -0.003880840005303897
670 0.00044677884048882583 0.001649759377638823 0.006400148280026316
672 -0.004556965178553869 0.0017785556159176019 0.007562005981580501
671 0.003848723315873766 -0.0009864672012650376 0.00544701327483026
455 0.003557149593362737 0.003962075707675479 -0.0013889913086741524
454 0.006959789459802971 0.001339958026131836 -0.009294436832140901
468 -0.005255693980645791 -0.02569711511432096 -0.008854526863707567
453 -0.0008647912403786909 -0.004906775575197803 0.0005268890027542133
673 0.0017606416736946297 -0.0005858779122005828 -0.0050711778527275635
687 -0.002291277230128803 0.0013621895064705222 0.001733282068846246
1131 0.00894171317348679 0.0031884681647659243 0.03386445233156676
1123 0.00016103509647301056 0.007211190500184333 -0.000367627290123289
1132 -0.003792042519868289 0.025528167699492534 -0.015838537871154457
1124 0.008144514737553888 -0.005540631637661607 -0.001865475500249429
452 0.0006902576630140764 -0.004573273593374327 0.002683011095564158
467 0.004465933503279406 0.010992768748099676 -0.0058538722275432295
451 -0.0013795360568871675 -0.005961137135332414 0.004406750008003993
466 -0.012876547705890473 0.029273389883489577 -0.023101333078416036
1116 -0.004886353767634777 -0.006463182573826601 0.0007672895051571223
1115 0.00273654170774217 -0.0022580718090837366 0.004573423350279687
450 0.00022767790968432957 0.004937962409962548 0.0005178302922675078
463 0.007001010900579605 -0.00423768980967248 -0.004738072263241532
465 -0.0012281298891086262 -0.012975954435670619 0.016443070267251565
464 -0.006276506374244531 0.007678994250013108 -0.0036997128630832615
688 -0.0007851496257696533 0.0046253157678637314 0.003412502664707504
690 -0.002498644178424576 0.0031195794122763788 0.0066259361791509075
689 -0.009175189369322632 -0.007514267300418962 0.0032304643887766434
706 -0.0005874733722080439 -0.004716371054611895 0.0007929812564009478
1114 0.0008223143662567324 -0.002415290927089831 -0.005721142222831556
681 -0.011975761187532557 0.013268415110327713 0.01829246162604786
691 0.006352182296956707 0.0005235664264232761 0.0036275296911052373
1133 0.0029653312779274956 -0.02335843474968888 -0.013632818864625475
1125 0.0014684515553750057 0.007917836769904193 0.007984989966271627
1113 -0.0010842102210539511 0.004449736508334524 0.006549859182577665
474 -0.032298807433788726 0.0032291199481931957 -0.0019042984419571577
385 -0.003774942914399098 -0.023529698840999775 -0.018767855572676958
399 0.002869040814528588 0.00019254136288083745 -0.0038244220156768653
144 0.00023361031541199503 -0.0013170693419665386 0.003362415536892789
440 0.0071455006036742815 0.011721784015949772 0.006065530434405876
146 -0.0038462330261117427 -0.005557906138931668 -0.003452321752001126
427 -0.005668537191799399 0.000877316478159354 0.004064556512617569
148 0.0032017076930017253 -0.0006617144276002875 0.003611285090924845
69 0.006597017437649307 -0.0004336049757286775 0.0009691640863344522
83 0.0056439758608053565 -0.0025833285095549635 0.013104310989576703
161 -0.018278070370120122 0.026968430474090112 0.0015666154389577071
414 -0.005210288118024734 -0.004835435834615941 0.003934145716536351
423 0.02244250545184795 0.008887995121540468 -0.01273375444450181
416 -0.009905187619696821 -0.00315448720791389 0.003893557871852379
413 -0.0019724652070535064 0.0013561552554468982 0.007587825283751325
415 -0.0009324997471092966 -0.004940699564973095 -0.005078952589033027
145 0.002394776974909435 -0.0068481133751915075 -0.00028829990166495624
147 -0.0007713589291250891 -0.006553956519315966 0.0016228198661664116
160 0.007398802855203963 0.012601488961923504 -0.0030535459530675324
407 0.002469300843004658 -0.007235449276994955 -0.0015332655752310139
408 0.009085185036590275 -0.004962533600657332 0.00452849418340057
424 0.010092511456836784 -0.009234402084754225 0.001104902374961016
417 0.0057767674253613455 -0.006879761857378089 0.00468155566373912
405 0.0032674034244886668 -0.0018744234164756676 0.00019695114340311347
406 -0.002310257638287217 0.0009409194008524659 -0.002211141101971623
421 -0.00026731400973185106 0.002503342078632636 0.010728844831920246
410 0.005379799005158811 0.002205985754405329 0.003741736113225087
409 -0.0035735459427376727 -0.0021151277971342805 -0.00483252620198273
398 0.002317557519222175 0.004324448044340156 0.0017785246999891863
425 0.00027270559106728245 0.004163735995706888 -0.001720836322778093
422 -0.02374707130494142 -0.011235400257893725 0.01621783374715504
411 -0.0004767385742869393 0.004504993246071289 0.0011282423246772742
707 0.007204346879984818 0.009767242248920074 -0.006046025483085239
412 0.0017848421898980131 0.0040095945332380934 -0.0003985847408238018
68 0.010121715825572917 -0.004672170509284924 0.00553181228293542
82 0.005117438759155701 -0.020974170190929096 0.02595192815586336
84 0.007896663987913081 0.005939104840973498 0.02394244014221158
426 -0.0006785301984273414 0.002890443543183551 0.002919736946535634
285 -0.010290641423661281 0.009025399444349949 -0.012868758381569652
2617 -0.003158370170325955 -0.0006052030639871066 0.007540536237761536
377 -0.003160816162043917 -0.003429107418145517 0.001160156891330384
379 0.007821262923486793 -0.0011809634537247788 0.004250812707315341
394 -0.021450940358531 -0.009475277607428688 0.00047555722725228604
392 0.006658341867582783 -0.004132362484271062 -0.006680044678387991
2390 0.000547097918622743 -0.0027797448447723287 -0.006113398602092171
2634 -0.014907047707214079 -0.0002515663493392452 -0.0020397110754868824
380 0.0007242821964109736 -0.0038843946721923324 -0.0001524988084679794
2404 0.004818015994547783 -0.0018990454667355543 -0.019217159687378835
749 0.0013091445910388732 0.00668453767505265 0.0020424410917397086
760 -1.2985812777105381e-05 -0.0034357561221478386 -0.024133500266351436
747 0.00698794384664115 -0.00011699909391093477 0.00018846912185370408
753 -0.0007717830062170725 0.0003466563993074863 -0.005792205789628129
748 0.0022856488786966314 0.00030142602972412495 -0.0019179047629139777
761 0.004825198554041035 0.038884923530817884 0.029178555133170733
746 -0.003856344865532945 0.0033482911261958626 -0.0016484121643846371
754 0.00746954367750909 -0.002231657092044649 -0.006244799071757536
745 -0.0026917171345013 0.0015849814486093336 0.0022329442516919647
759 -0.00793113409178892 0.012947915173940587 -0.019000232836356105
2506 0.006117423562998194 0.008449009617422646 0.014356034589846543
2493 -0.000817529891311533 0.0026693080235774347 0.0017980090625176312
744 0.005063078639370536 0.005279213095823922 -0.00761358995601074
2505 0.0014656308418764747 0.0019251392807794383 -0.012390903929120555
2492 -0.0010722262525602604 -0.006936368281291952 -0.0035353451207347547
393 -0.0008104103227834556 0.004567026234807569 -0.011739103722308302
758 0.011949330719762147 0.015465869318448091 -0.026281027988417513
742 0.0022300623969797174 0.0014431399651909035 0.0009306275858557355
2490 -0.0045774179140651875 0.007411201713191605 0.003450023861465687
378 0.005245131536134375 0.00615028694859039 0.007405897148580019
2489 0.003951874832896958 -0.0055747945631338955 0.006731383559485635
2491 0.003930168599024133 -0.0008801112251411099 -0.0017400613750013418
2501 -9.169242250383087e-05 0.00903204637349357 -0.0009666093014686835
2508 -0.009691433780333924 -0.006437852093670804 0.01390949462554915
743 0.002087216718227096 0.0020967892547334895 0.004450211428140975
2500 -0.0004097110245243204 -0.0076815720965997605 -0.0011790780987916607
2494 0.001772131626667825 0.006420673736782178 -0.0009822716846294207
2507 -0.007406524684444443 -0.025256803897827636 0.006664074780172908
2499 0.0045688158966372995 0.005426202227444821 -0.004534652012041193
2092 0.0019980491179271754 -0.001049724311582274 0.0024220933204502832
729 -0.03268882378764667 0.0070173532666051135 -0.024741230872774685
718 -0.00449180292283371 0.008662571703521147 0.004270505856381298
1616 0.0008097106309378833 -0.0007346104719410187 0.005208885664785711
1301 2.266710728660235e-06 -0.0006968262116067048 -0.00017677415389365207
1302 -0.00119001993453462 0.006646028246998017 -0.0002686828472427654
1317 0.006554706070379932 -0.006581178478153714 0.010028845774395464
717 -0.010440787815532163 -0.0013606737975121587 -0.004767364690520557
1613 0.0029276695777100017 -0.008040792872167147 -0.004436015312626915
1614 -0.003761609206611847 0.005375178959351179 -0.0002393129498705353
2106 -0.011726856650079677 -0.010850551716450657 0.009030822557276212
724 -0.0039831955716606625 -0.0023407531023114142 0.0005756766056477643
719 0.0015884014127020378 -0.0044338201663311734 0.006271574729430104
722 -0.001993652323678345 -0.0018658630559978567 -0.0005636557601749207
720 0.001560580795017516 -0.0018222972083807092 0.00031784704078531236
721 0.005017923955890518 -0.003146702491985738 0.003780822465994635
723 0.0041274422365668835 0.014550156926061545 0.0019923155161298434
737 0.004460326293234364 -0.0043844175577285325 -0.011994825418285374
1318 0.016311962285833072 -0.0007868492215117193 0.005380658386354648
734 -0.03797587398701664 0.010600162219472277 0.004121290782524559
2659 -0.005288852516677233 -0.0009195542678621069 -0.0010888665580659422
738 -0.008187092234036668 -0.0021837132674074585 -0.0008745767141747955
2652 0.0005305115543423247 -0.0008903066057789705 -0.0008070898022798118
2661 -0.0007369099235070655 0.0019639833446348184 0.0019045580503121969
2658 -0.00045819942637413333 -0.004146731594109758 0.010200027773783189
730 -0.020151763394954246 0.01974702351397494 -0.010782774032075601
731 0.004374967339327606 -0.0026963038395712282 0.012811408548649709
1627 -0.010890897561775111 0.03966114735636626 -0.008953381818285804
2660 -0.006247740663855461 -0.0011882974524057544 -0.0008916185100532816
1626 -0.02300852864563011 0.030714728088369257 0.004579987536195999
2670 0.010772163024285698 -0.0028040125790951336 0.0031923600728327125
726 -0.004318976973170427 -0.0030232269270339066 0.003660048641181152
2655 0.003971962634687631 -0.0008298542071472392 0.0022730318666711016
2656 -0.0016636242240475945 -0.006181162811306788 0.002405932256118348
736 0.002609872787427093 0.005566835607295414 -0.00437394075544914
1623 0.002796066557004994 -0.004489119881570951 0.01309547742553058
2093 -0.004137016367615772 0.0056175330753802655 0.004518342875773539
2653 0.0059321812503894756 0.004098137609821171 0.00047383969676955973
2657 0.0038998832602434455 -0.005355826438388989 0.0062281556384412694
756 -0.0031181323972838404 0.006081446922184397 0.0005913640723321661
2685 0.00893450352239026 0.008022906723654315 -0.011633660917098394
716 0.004352959249397988 0.001201871708663607 -0.0038700062851046596
710 -0.014312178693448842 0.011462674831193223 0.00794711119862977
699 0.0027014279549611667 0.0007521711188255357 0.001993210394404706
728 0.005856016110579411 0.01868140902504795 -0.009179656783582525
715 -0.002553675598634212 -0.0011864177451719436 -0.005274766590261901
714 0.0006158387996501295 0.0008347066474436118 0.002649878472464436
1305 0.0006998517501874303 -0.005973020247907312 -0.0029539541888968786
1308 -0.0007551035447913526 0.002130083962087407 0.0014233179514519963
1304 -0.004596986045102899 -0.00019866349476098386 -0.005138338029438541
1864 -0.0006367952364720427 0.0058121686707834795 -0.004071232003455743
1880 0.004872468253211058 0.005335583856241541 -0.019903379912872887
697 0.0010953270383448914 0.0030398248432264093 0.004923199701728644
2666 0.014440755611548292 -0.02398015764320365 0.009880507083899927
2654 0.004047290632507381 -0.0006098860976219762 -0.002162585534030004
473 0.008954219481313043 0.02398422067692412 -0.02339688198395531
698 0.00042065695045925605 0.008670952453622304 0.00817791056855367
1319 0.00603234298538125 0.0033791365374333535 0.0014606705325566028
712 -0.017238146869515223 -0.01301965974270269 -0.0438266305943632
1867 0.0044833996934832985 -0.0017128177198559623 0.002773387043193188
1306 0.00178911504539978 -0.0004952917603632505 0.002061308386994331
1866 0.011824740308069364 0.0016730261776843837 -0.0017166509345715995
705 0.005906086723912279 0.00559965516707058 0.0024250355049893154
1873 -0.0041729476332101525 0.0009937407836183548 0.005924456786966469
704 0.002714700658764298 0.0078332433600625 -0.002384745785716641
727 0.0020052107168300167 0.006685785558126052 -0.0018785377356939504
735 0.006058665368366759 0.011398653810136345 0.001683145316654222
713 -0.0026995626144895504 -0.000253411766792771 -0.0012575217451417933
701 0.0035316138614708255 0.008488464053329625 0.0011263960217829674
702 -0.007097546502623067 -0.008329437851344771 -0.0016851142546691167
1881 -0.01629960709804066 -0.01976084074454185 -0.003016390905322144
1876 0.010150285158611789 0.032284723948948914 0.0015046530092124857
1868 0.0034934875859846844 0.0036012303733680413 -0.0017244760457132667
703 -0.00585537291712216 -0.0017722810160060022 0.002423164207614038
695 -0.007599999886870921 0.0074102147077906395 0.00834210582847729
711 0.0295306887067369 0.0030787754567625706 -0.01568112978367086
2667 0.005540980917657061 -0.005594888169014512 -0.0173105364249552
1320 0.0033603685531226626 -0.003492647536817021 0.01290585859394819
1307 -0.0058991136712635206 0.0032765244357531587 -0.003973701522498274
1310 -0.0028301831434706954 0.0039019907490319564 -0.001999000287067285
696 -0.0013904101957835228 -0.0045161906991573915 -0.004855647483616156
1861 -0.0013069652058956152 0.0011809828689866174 -0.00014730074366581833
447 -0.004033359821113907 0.018397707447143526 -0.01787134298991873
430 -0.005441315943095259 -0.00518134656448226 0.0021359302518983493
1853 -3.082009066629286e-05 -0.006033550242397639 0.004632209997499566
428 0.005095106228020494 0.0015700461590484871 0.0007456331911098181
143 0.005079569837875151 0.000867296213478478 -0.009245344800409144
1863 0.005175818106305061 -0.0016406681639443681 -0.007904775827569712
693 -0.00047955320822221776 0.003401267360145514 6.99094542305065e-05
694 -0.0012868009610840858 0.0022811084775365875 0.0013113572897562509
1860 0.0004060198379832684 -0.0012533963212300046 0.0008365966362572864
1874 -0.01640765927674414 0.014928438261061331 -0.0014403755092031235
1859 -0.005328528345758688 0.00040217900083317274 -0.002739936603501766
429 0.005159102778039565 0.0060333363183642475 0.0026310843346737138
142 -0.0067019722446290154 -0.007919101165390166 0.00547878618978381
238 0.003866305059689868 0.0022987407842548543 -0.0011986831504215932
158 0.004730757251159376 -0.007981072486770425 -0.003302603172022061
448 0.002124631000952027 -0.019977883329127106 -0.024018177062037235
438 -0.005260773914468388 -0.0046592742156333555 0.0037228885339520954
1877 -0.00447067533709162 -0.014361719267499193 0.015148418631522545
259 0.0013931928654744726 -0.006262228368656602 0.00558560907429219
1854 0.0010636742348980816 0.001648061646552001 -0.003203892159432166
159 0.01697457762749314 -0.007291016877228382 0.0024290736172314907
709 0.014058378357499214 0.005095591750299101 0.01853615563714673
439 -0.00023288458986049296 0.0009580980561114412 -0.0018608339198663757
1858 0.004352580572990002 -0.007684906893261911 5.133527541797819e-05
1875 -0.025207180463927246 -0.018451140783822175 -0.004494124693192024
1862 0.002245182152509101 0.0006015925027941719 -0.0020284020493396347
257 0.0016946588844170588 -0.0023623120454473695 -0.0020692802258180667
1856 -0.00373275282196619 0.002367884493936123 -0.0021931964452788547
243 0.007056188088811233 -0.00026671509200710565 0.002341509121846296
449 0.012056703327126881 0.0012422147062692416 -0.014898530782023632
244 -0.004947594578155639 0.007369119022342932 0.0012025358501134681
262 0.002638131010114334 -0.02463251916270383 -0.03700483554643603
255 -0.003460112858622472 -0.002044586881264642 0.00036130125496442036
263 -0.007021035290565703 0.0030207576355645673 -0.016248221374729716
256 0.007453492006229847 0.009512842663235488 -0.00313446752129184
246 -0.003526064573621137 0.0032197224016709525 3.4955009129837836e-05
245 -0.004316155068391981 -0.005099564349878071 -0.008767993517229958
247 -0.002690662012685237 0.008675639961175135 0.005549014511848214
248 -0.0021416255482932267 -0.002404119471473071 -0.0019880988707548534
692 -0.0004432802527646831 -0.0012805381381154144 -0.004033706722165682
708 -0.031049531556012807 0.01171384690530763 0.006470826717331598
260 -0.011190700501144358 0.024990002524357378 -0.005764565993866669
261 -0.04561717028001111 0.009650692856641472 0.000751631467431843
1886 -0.0017626005121681508 0.0003822579381884646 -0.006737318648146763
254 -0.010274551243581013 -0.0033243030125477994 -0.001734641034716835
249 -0.0015555535357523016 0.0015361198621664923 -0.0023565576305391764
1857 0.004169057102002829 0.005430431789323839 -0.00139675894078453
1885 -0.005979052155778343 0.001162968189494062 -0.0019414303472788668
2099 0.006753605200596465 -0.003465722070004865 0.0014230548715660836
2101 -0.004913796628152197 0.0012244351636335681 -0.0017542164381279114
268 -0.005285750984967596 -0.004912569701532917 0.004593109443145629
1907 -0.009875754996946517 -0.00041339188698446465 0.014477869311050273
280 -0.01871856258271403 0.011715542526803109 0.001541983242404901
2107 0.019528192838689857 -7.910046926626908e-05 -0.00843485842189671
2094 -0.0062559954154055766 -0.0016980657197210815 0.0064126881948074945
1893 -0.008151154260435499 0.007089412184101953 -0.0016221194899960403
1891 0.005489005199262159 -0.006464589189159282 0.0023373537821282284
2113 -0.006069470114777114 0.004302715209752302 0.0019275083267979163
1890 6.18855984831554e-05 0.005902349821501609 0.013160517711028668
2504 0.0002850252162036061 -0.004641681176369168 0.009756590005106626
2488 -0.0016155074526520694 -7.489218568716026e-05 -0.006645842746754608
2126 0.002106899774701798 -0.006972034875980159 0.004655338537791274
2502 0.006143336661351886 -0.0015507967775273438 -0.007991520132087546
277 -0.004250993297245063 -0.0003060845023511255 -0.0034311680938618697
267 -0.0020554688387247537 0.006086298655285315 -0.001066506779905463
2111 0.005677484293413471 -0.0012221042540261414 0.005038434229622816
2100 -0.005100915349077922 0.0014166318735468414 -0.0003482078061035293
2098 -0.0006483128357228611 0.002623508608809883 0.003941965283723474
1906 -0.017620756398725727 -0.009806216736151428 -0.024757690310575214
2487 -0.0015305011784969148 0.0019832217136472974 0.006766861691716183
1887 -0.0002517610603680804 0.00041591826986202876 -0.0021501542622401225
1889 -0.000860928515310822 -0.006943650341132916 -0.0009433707084237593
1888 -0.004741113928510711 0.0031738531891356268 0.000753939564038745
1904 -0.001815280675278097 0.009855537255238137 -0.004748745549819432
251 -0.0010204837532027027 0.0004701792250255756 0.0004907087599297189
286 0.01142623664358342 -0.011650050542344154 -0.00862381442216019
755 -0.00664056608516185 -0.007186194722084552 0.0031874921227378577
252 0.003246414343907714 0.00028585206853196506 0.0034945136002466188
250 -0.0020390840115064686 0.004974721167493233 0.0005142423475604907
253 -0.001967308328694068 0.0005323156924121721 -0.0056456968320386346
264 -0.004040834146541695 0.0059173215349102625 -0.0012700912689143239
2110 -0.0036186835978785697 0.002139065278709143 0.0010057142634085682
2095 0.004349151462746259 0.0030556765645892913 -0.0029769449846395878
762 -0.0009423990817845819 -0.0026181148778542107 0.015950486659344225
2096 -0.0015517987928341903 -0.004380194835782538 -0.003359717064770024
278 -0.00624098712536001 0.0017128520012852856 -0.009095460345277676
265 0.0014133161502420093 0.0012475037929584145 -0.005579779085564779
266 0.007679937483421824 0.0033124074047144896 -0.0005237633990522986
279 -0.0023705142447408996 0.017413684750692784 -0.010946767328303037
2112 -0.0016043806385662935 -0.003495873975395031 -0.001052882517754344
2503 0.002274585490815556 -0.03442831592598678 0.020789944835272182
2486 -0.002199397160056313 -0.007401424464247417 0.0033189111152460813
1905 -0.016449100004237164 -0.006566081956538624 -0.021617237273989932
2125 -0.011213839930646336 -0.008247182584432704 0.021454333725016914
2097 -0.0031520122925639787 0.0020855710267760307 -0.006814630753928057
2484 -0.006314431675626574 0.005649173478379691 -0.00011352376214558185
2485 -0.0063637969083385065 -0.003967805078125298 0.00031703732686792085
2469 -0.005359386102924056 0.0005922370533386537 -0.007115361628040455
1249 -0.003827761266450027 0.003621644278748995 0.0032527800885660246
1505 0.005914723445128056 0.0147354905673336 0.022207552610921777
1487 0.006619194433829984 0.0016158741779559828 -0.004683002312786607
1480 -0.011385892635269805 -0.010483232888423559 0.021721082724570046
1486 -0.00018278613742646438 0.004834269541655699 -0.0003566372193341164
1489 0.004956061827477544 0.0011476568691723467 0.005396331404600766
1364 0.015332935286454862 0.008608973279616875 -0.011489327706211833
1348 0.004670911554080424 0.005245366160596787 0.003954370122949641
1472 -0.005215447041535802 0.004615403717932258 1.8903790335272245e-05
1488 -0.005477223077989942 0.004354196392671134 -0.002167392263543553
1355 0.005989254709771792 0.0027870427638407927 -0.009769478051261962
1372 -0.008214334754209074 0.01973825473555543 -0.0011483837439247614
1371 -0.015256381172260768 0.021104488310335692 -0.012035747819398274
1705 0.01922649201406832 -0.000274303781676329 0.01212752290559274
1354 -0.0016755697541036162 -0.008450908437029347 0.0017194861414887043
1360 -0.012282103337664819 -0.002625955399627189 0.006031542412819448
1479 -0.015515425033650712 0.004465766376703886 -0.011682718432581075
1353 -0.0049866630441034445 -0.0033510042156721692 -0.005065043765814315
1370 -0.002981502651106963 0.01432967243271899 -0.011955430189167079
1471 0.0031318357971377546 -0.011020832197665573 -0.00214752441178547
1470 0.005016862537186181 0.004129282427506229 -0.005587682755406556
1504 0.005577333045311212 -0.002943444674373064 -0.0003167873568689705
1352 0.0005130757853105079 0.0045941665717691696 0.0030829575788273492
1361 -0.005201081350827763 -0.0022728690800917577 0.0039465518879347634
1351 -0.0018313643085055924 -0.01055250810165544 0.00917727330954964
1362 -0.00959816415910257 0.004460036477947788 0.0006983046487798418
2446 -0.0025983144591502473 0.0024522474428758548 -9.338220084342201e-05
1349 0.0016561089182121965 0.008665032986223122 -0.002088358275691734
1350 -0.0043987666972803915 -0.00017744620432916613 0.0040230716979617375
1365 0.020511922674834697 0.009086273024405952 0.004806709798464816
1366 -0.004785404876783862 -0.006297481700202816 0.015221939810999606
2481 -0.006451903589537062 0.009376240066509217 -0.022486385717813674
1469 -0.0008519007983314383 0.003530851980653152 6.35244754322521e-05
1689 0.004790014475476004 0.0018475693717038568 -0.002480859657374496
1485 0.005796024837721561 0.006957321332814539 0.0046322052294150585
1503 -0.006056617410025289 0.0013779338867645752 0.004925372278976864
1484 -0.000328049293943826 0.002543016896087488 0.00076497811967171
1690 0.001805663376840499 -0.0011892183129941047 -0.006341581458810759
1706 -0.024095624659849706 -0.02997127907468253 0.021793896156234307
1510 0.0031061118400185004 -0.021312867241613537 0.009703433353573255
1367 0.0021754584387977892 -0.0019138497319584017 -0.004999732327643971
1363 -0.0021329763905843036 0.0018783484563145757 0.04326058045829083
1584 -0.0013894051122938596 -0.0024818854209925924 0.0018192091105268357
1490 -0.005370868967411954 -0.0038785561684002525 -0.007944973243269952
1491 -8.423188049833982e-05 -0.0029128334197677645 0.005209415995385646
1599 0.004406028614169888 -0.002726327845241961 -0.0008147155583145069
1585 0.0007965979922648943 0.005754442692550188 -0.004369994209469819
2456 -0.029321090321376714 -0.010959920489499966 -0.014036412136065914
2443 0.005843666706524543 -0.001312146657107481 -0.0029172135130692374
2681 0.0010404154780303992 -0.0020968874265414033 0.009929003247939423
2691 0.004205042936603871 0.00775693247743172 0.007729834573179927
1509 6.097758903745862e-05 -0.038721808751206684 -0.012434090252554897
2445 -0.0019701163235450914 0.0020671766853309096 -4.683157888075009e-05
2480 0.014406009046080796 -0.018366719989742528 0.010151469859249607
2444 0.006605716613947154 0.0016624140691517666 0.004516188605429111
1449 0.003918269717154325 0.008675839090824507 0.0002765524193875889
1649 0.001136860228235361 -0.00038224239561487867 -0.004711341596394564
2442 0.0009005096086675555 -0.0022691464779595297 -0.003870596490204867
1468 0.0003820974659607283 0.0018085117886965558 -0.004182708474510188
1620 0.003351027159309772 0.012530441285134803 -0.0002455422588582332
1650 -0.003117763134849285 -0.005433580030430135 -0.0034814277588781743
1473 -0.000969908197410502 0.0004276946521878311 -0.0018102066706119518
1065 -3.20531197688567e-05 -0.00395119685288497 -0.006732470946745853
1078 -0.008803099431286123 0.0019203144530778142 0.007662215288640814
1481 -0.004090690134371882 -0.004153290478039498 0.012640161764441687
1467 -0.008455424263614392 -0.006051114528069631 -0.0038851102766944458
1478 -0.022016418561504107 0.008188250291536619 0.028516867705026625
1634 0.0007295027292105266 0.004265883521594747 0.002781530867751086
1466 -0.004018830019943774 -0.0014613561458887972 0.004346869842999889
1482 0.0005157414068355121 0.005015631110773857 0.013165789061213162
2689 0.0016441127912775635 0.013540655029594128 0.023182159451935497
1476 -0.006844525577514027 -0.018708094614142547 0.040671992968938225
1461 -0.01001392511106643 0.0052166565270444845 -0.009038924994581385
1462 2.187554694339843e-05 0.0014864732690000877 -0.002717385972684127
1463 0.002774920108490586 -0.0006092095426495054 -0.0037511349225706923
1483 -0.0271472852208046 0.003939938235829969 0.007241193956342581
1475 0.0015601250585655202 -0.0012452345731755216 -0.002145476952556566
1464 -0.0028296525122260916 -0.0036081597246544485 0.007334733792662929
1474 -0.006540177804060919 0.008654638768874972 0.004369063925432135
1465 -0.002969980781282369 -0.00586441226526704 -0.006489920162310233
1447 -0.00224345579534543 0.013337523789216392 -0.0012774769523079404
1477 0.003976801111103165 0.004224884186918547 0.01757374947485029
1660 0.005615189102494854 0.012739987063296316 -0.012258265446974196
1635 0.009960472153973072 8.430500213929432e-05 0.0015473522425755388
2680 -0.005598173480272211 -0.007827738937260714 -0.003180660106933141
2690 0.023358247832607048 -0.011033247550083572 -0.018161838316534035
1646 -0.004124327870927352 0.005152344851445191 0.0006873763697841176
1066 -0.0020568113244660772 0.002305354223400427 0.003009177368437978
1067 -0.0024786104508801223 0.004103473397306283 -0.004648571515690376
1082 0.004153022289834931 -0.0051097507113921125 -0.00042579971521313197
1074 -0.008892373745044674 -0.004861673954213695 0.002688745585295865
1651 -0.0032282494945132367 -0.0011781692331391518 -0.0012342164053092887
1653 -0.0006772280446056932 0.0061745425372366795 0.004527299809624057
1068 0.002865149342215446 0.0016969557582665674 -0.0012210329378894908
1652 -0.0017695491138593593 -0.0006047663472488766 0.007309465493895951
1643 -0.005942874274756883 0.004367721682246845 0.0005323335450758016
1642 -0.0030632160412346478 -0.001653082456640945 0.002113869073348993
2679 -0.0038305256894632027 -0.0032221625660816522 0.005204494336298787
1659 0.030253587646498534 0.024556363952884498 0.01000764487276943
1654 -0.0005499318768634493 0.004233312391386747 -0.0014365831272002902
1641 -0.0071141232212046475 4.029964933620745e-05 0.0055498225279911806
1346 0.009061442013245645 -0.0038650112114100446 -0.003182543170189231
1446 -0.002737941594709165 0.010211771147998212 0.0038955233301576613
1448 0.010320531752822777 -0.005719542849340161 0.003065394362580228
1069 -0.006901531360815654 -0.0016822676955450977 -0.0066803394807360885
1329 -0.006446304289799734 -0.006917483728786569 0.0058827823000324785
1330 -0.008095610039477326 -0.004463755172156048 0.0030367072626700576
1345 0.00522436232314379 -0.0063853401407321505 -0.012400662458019919
1335 0.0012033118649694037 -0.0008608889467492637 0.0003600065663150941
1331 -0.001927939962875356 -0.0004696508394843723 0.000494275531793629
1341 -0.0060100585771086035 0.007691771270798179 -0.017056695055956785
1759 0.005000343936691203 -0.003561757801034833 -0.001575031345338087
1079 0.018107287702144897 -0.044131343565532624 0.002509359993745185
1458 0.007183467183326295 -0.012957289303991804 0.016828250707473468
1334 0.0001367735273376134 5.952478966960931e-06 0.001432402937495651
1332 -0.005331317114658153 0.003293854434760565 0.0028528045746269094
1343 -0.011022656466056394 -0.0011535765472009219 0.03484074131112121
1333 0.0003066797475839817 0.005718290166097232 0.00041330144535210803
1768 -0.0003402397902586206 -0.02004833853917446 -0.003770920469670256
1755 0.005416174313758437 -0.005503790055678768 0.00025084107545672644
1769 0.0334164218252569 0.021772341972198784 0.005872294236307334
1756 -0.004553749940482635 -0.0003052454472256406 -0.005686651443739068
1754 0.006087246705845028 -0.004820989269406661 -0.004620109852751263
1757 -0.00620673425487244 -0.003700354308832227 -0.0018343089719328161
1658 -0.01689426987415744 0.007035582834122509 0.0012069770518045322
1645 0.000607829416923426 -0.0005683463841800551 0.0015599952513721748
1644 0.004431083768120144 -0.0035896278082422203 -0.00269532786937344
1657 0.013800603533081483 -0.004315754391865894 0.026133853478157443
1070 0.0043513331208194185 0.01049520810196136 0.0060859551828432125
1080 0.023702004191257516 -0.02473430390756349 -0.002231491499389544
1344 -0.02710950221406738 0.025865363421917566 -0.015791012538250142
1342 -0.010155203353687825 0.003655930842227697 0.0016074394017546244
1771 0.003940081406921443 -0.023187865286172175 0.03788136450458376
1763 -0.0018332368011637179 -0.0037016510868012305 -0.0012704154873845255
1758 -0.00747222068793662 0.008303857038485667 -0.0017023292461925844
1762 0.009068743794092525 -0.003912712827901928 -0.0014629550448099443
1884 0.004188944708076442 0.00604468121790901 -0.00011791019453607306
1883 9.480987167042698e-05 0.002599140894147414 0.00459778633556678
1902 0.002642787053288973 -0.005913413133024448 -0.005731067092288607
1734 0.02098733886301188 0.002204189916615993 -0.0009938626549907607
1903 0.000732177717997796 0.003303840272140524 0.0024515100291528156
1909 0.03170142060160687 0.013352987841429749 -0.007333079425004504
1608 0.0037792381183084853 0.008958727123389427 0.023992471741637805
1761 0.0010667689015072931 -0.00046249577202041645 -0.003068085758282264
1601 -0.005578193583973337 0.006124105975897816 0.0066221157351433
1596 -0.00033202425975335456 0.0005440584049245164 0.0013302830946651453
1610 -0.013783599514145813 -0.012236430313442858 -0.022652615924844653
1603 0.008854410458959424 -0.0035899777915934525 -0.0012646444971990388
1770 -0.009806151109182648 0.004434134373586356 0.011889440404991422
1506 0.006051421526643695 0.0091337250731533 -0.017507342398356798
1492 0.003687895985878033 -0.001604760026679432 0.0015944222417098083
1497 0.0013056062861393023 0.0006536441628124297 0.008062669435656752
1499 -0.005410451612315015 -0.005661062809898247 -0.001458698744525148
1772 0.002560730301845858 0.0023734214611449084 0.008254338558185395
1595 0.0015385155212229407 0.002846221237031186 -0.000539299162938569
1760 2.9086189293236846e-05 9.834098756665237e-05 -0.0036789673603429144
1594 -0.006605690773328387 -0.0009464514673891089 0.004223102833207362
1607 0.03821082231800002 -0.041835184053740634 -0.008243944600298639
1508 -0.003628764914116522 0.010609867613850804 -0.025252518477722377
1507 0.008231916609595312 0.010060647401816933 0.00024083995993532675
1593 0.002568937735641821 -0.00016237683562401466 -0.00453208322183974
1592 -0.008325769915928566 -0.001106128865807722 -0.003416346968384328
1602 0.002416412436131665 0.004765729788994917 0.0049449482631774375
1496 0.004935072897375666 -0.0107472473458575 -0.0022244740627857624
1495 0.005603119070884161 8.522800530196903e-05 0.0071452267763432616
1494 0.004768113310736528 0.0019287039149239304 0.007969303710842007
1501 0.0031506669141892654 0.002111425978957205 -0.002921663027131452
1493 0.004906550394985043 -0.0005596286899444198 -0.004615440648797895
1502 -0.003829108572304449 -0.0006529317082924741 0.002157062582544935
1774 0.0017438551997878006 -0.00046111076903280703 0.0016458506776088685
1591 0.002315434154327834 0.002249850428431651 -0.007678510972995593
1787 0.01820657616054846 0.019150031403987185 0.021102092955581433
1604 0.0065893051502858265 -0.008590750996786245 -0.0016938982197319276
1745 0.0013813307906042703 -0.008181679442169956 0.0041720296270748546
1609 0.007228298515530083 0.005903169394023359 -0.011838464713019888
1010 -0.010298161603340688 -0.016612978561439656 -0.012820632613283494
1003 0.006327660566108455 0.002877360197902548 0.0026450385813179345
1032 -0.013907939411696954 -0.002089622871121157 -0.003997273183397987
1709 -0.0022443120925336574 0.026907076043841776 -0.012100517694771934
1247 0.0005077543817417188 0.0011517555486221546 -0.0017741982825481752
1002 -0.0066367103936398495 0.002385330918153359 -0.006523534161806402
997 -0.011015264855300773 0.0018069286977637979 -0.0023072399888374355
1244 0.005861618190120678 -0.0011945173702910814 0.0035406824194599454
1028 0.029181179268854524 0.013818710366478654 0.02889009407498799
1246 0.006510174112507697 0.005831218312851169 0.006507207077393075
1245 -0.002208370168947645 -0.003415368357638638 -0.0003152896894600639
1259 0.04225371130775928 -0.028380876643727192 0.013733058707623405
1258 -0.013687424249284557 0.0036848978134489127 -0.02114505844309086
1016 -0.004661896997263953 0.0036026608081683744 -0.008169153851146754
1256 -0.020656381198840827 -0.009501184431430217 0.03560061235457618
1693 -0.002831428320731897 -0.0009048712392946083 -0.0012860883182878834
1707 0.016744802821660115 0.0024575367981880796 -0.0074186626911218485
1702 -0.0027506914909257245 -0.002652254118141021 -0.004412598086796631
1694 0.008298167198750154 -0.003612366446382864 -0.0062628653497230555
1695 -0.0070745927537811774 0.0011316259161049651 -0.0022998910601543933
1708 0.005100336466212894 0.01207370997821983 -0.019883437959560168
1696 -0.0021581893086282072 -0.003037706134056437 -0.0035793855553600123
1027 0.01809198581119834 0.011578027989772957 -0.002082843641634742
1698 0.005182489394948523 -0.0033385696944925112 -0.0012146733747036627
1015 -0.006979559459304116 0.005416025338376076 -0.0035315534514995554
1014 -0.00287065938262148 -0.006625657658657633 -0.0012936932621929605
998 -0.001619059862809791 -0.00653814531980728 -0.008305112333457553
1012 0.0024156569439170625 0.001863013751075653 0.005037634278392471
1000 -0.0018263787419764608 0.0024829496544718404 -0.002937621060395729
1013 -0.0008092990154475713 0.007336394867951153 0.007388026124902643
1001 -0.0006187399853166093 0.0024992027005478353 -0.00020522604006500443
1025 -0.005974189897799211 0.0013480975599210632 -0.010851246927154662
1026 -0.007417100065110772 0.0032244854252990503 -0.002694728471430203
1034 0.008578521606196434 -0.014536528929366231 0.01687258295823382
1701 -0.00908487075428659 0.0033051054810679043 0.0019113248829272995
1697 0.001216029204398485 0.0006274349710600918 -0.0017497736403658056
999 -0.0017683511159967366 0.0018012318239394125 0.000691165593020171
1033 0.01218283237537119 0.009054394119901056 0.014763827656053342
1241 0.010927367856929722 -0.005601638285247302 0.00199333618844167
1240 0.0007452108277251835 -0.0032274112299458925 -0.004845519767506503
1234 0.025129866032048843 0.02705822425093139 -0.012516863598415197
1237 0.005176445186517742 0.00405485046107611 -0.002999760711336997
1238 -0.004626934708387382 0.004950018986631355 0.0020038435463243147
955 -0.007858610444811577 0.0021704726974332415 0.0026622631074817308
948 -0.01827977934441088 -0.021255816353928935 -0.01643599389684372
1243 -0.0017564411519240383 0.008846551355866811 0.0006085417524702146
1242 -0.0036708981251849706 -0.0015692267524701406 -0.0071682932895480635
1230 0.014018051940239447 -0.017469677477035518 -0.015049896392250703
986 -0.00115612492748601 -0.0005427134051881522 -0.0012416029392253777
960 -0.00594957659048727 -0.0007497207888738242 -0.0006130184210317018
956 -0.002549862675890125 -0.006427240482438429 0.0021223148469050003
958 -0.0054975523880114695 -0.0028110774926843113 0.0023903372557589767
954 0.0008979020629841083 0.00044352475839023537 -0.0045385537107836115
1220 0.001017841655342629 0.004750412975202736 -0.0026794329847182187
957 -0.007991124115513587 0.005519531728075753 0.0017916507144897435
1255 -0.0065910238590080475 0.002598405854044078 -0.002003515056386965
1239 0.00876265568836513 -0.007403432663808512 0.0015399085771872023
1221 -0.006803896933067303 -0.004426973523000719 0.007046054592213826
1254 -0.0021705395860005462 0.0007502400567568762 -0.004563473596772368
1261 -0.006420234071166961 -0.004676048257093453 0.01588208520088416
1236 0.0022035847434764976 -0.005694778323896078 -0.006392465097759536
1222 0.0006939242807900743 0.0024034921285896313 -0.007798712914272676
985 0.0030754584222338175 0.0034894215117822584 -0.0007623626492528043
938 0.005484898946765693 -0.0014761704399513095 0.0038983256392536424
1235 -0.00639061578020548 -0.00307034503474585 0.0045028019668721195
935 0.004611069813676974 -0.002292453425764009 0.0034107784596055586
936 -3.8267345737416765e-06 0.005180791015859494 -0.003024353671920825
984 0.011418901671693253 -0.014067279458963744 -0.004133736368515105
937 0.0040731146902949576 -0.004660316673822861 0.001201076799270836
941 -0.00809574648646878 -0.002273880837828906 -0.006713317675833773
971 -0.0018727931710220134 -0.0008395088412108738 -0.004138151284185386
953 0.007043294078732146 -0.0004932999228529027 -0.0002007599208918501
972 -0.0021312608214251404 -0.001436023692315668 -0.0008596954270494007
952 -0.0065128086072345735 0.005099504860120519 0.006856300254697101
951 -0.009488698595703988 -0.003171541460023922 0.00017802655203814064
939 -0.00012292068535826428 0.003030687477894846 0.002268402660358886
940 0.0025967692721445383 0.006202308517858535 0.0004236509088768052
1100 0.006816847411024928 0.002323425827347404 -0.011297306785040326
959 -0.00963212449667752 -0.0015915161213087977 0.0038919121416104113
1753 0.0009616666361710564 0.00353702838396664 -0.001801278604071274
1081 -0.026214914845044696 0.017881490283484805 -0.010075065810594194
976 0.012194483728065286 -0.019882152889443973 0.0030067341076316103
1106 0.02402257752809579 -0.0037138780256337667 -0.016109246183094252
1073 0.0056781727437804075 0.002100199718437624 0.0028474092172704746
1071 0.003164278994332875 -0.007536496255318579 0.008350896940528754
1088 -0.0049829980175690545 0.0018579418206760771 0.0045580373264375315
1072 0.00196992781148998 -0.004404856439778866 0.001643544519695328
1087 5.298829107508942e-05 0.006287736915060985 0.0013210251770880376
1085 -0.002504812154788644 -0.004189284163250655 -0.0006330405957014066
1110 0.0024019115504000065 -0.014043401253551059 0.0074617827468442255
1111 0.02071838968629976 0.013159408292405845 -0.024443557104523478
1086 -0.002978328897017392 -0.007623974737075913 -0.0029093760685596523
1105 0.006569761441766884 -0.002670893556082083 -0.004844637663387037
1104 0.0019023688075399357 -0.0009015075852651329 0.004605856276184656
1107 0.015613060831554181 0.0061632782212080964 -0.021002334430369106
1767 0.020057683309615396 0.00416893326141496 0.016738271965755037
1089 0.0040131072558852 0.007439212677053094 -0.0020466093015461015
1093 -0.004098563233567395 -0.0016031263103151176 0.003863964896661371
1092 0.004198920256972328 0.004120161930459319 -0.0011472677089072968
1090 0.005846344111659795 -0.009687950593406715 0.00682099183535553
1091 -0.003096323785921568 0.0033705760473455738 0.008078138585634147
2530 0.03756861245919011 -0.010880245855977895 -0.018586033086447275
1752 -0.0023554323376484662 -0.001572998330106157 0.007994525803695328
1751 -0.0033030089710186232 0.00038395942445826494 0.0054328201889611
1103 -0.00847006221475181 0.006700678650843567 0.006872415217406738
1094 -0.005508119317392288 0.0020558771174492194 0.0034744021949379674
1102 0.004322782078377773 -0.00788314445904481 0.006472663436346467
1498 0.0035772647620725974 -0.000468641163726003 -0.001958432551731263
1744 0.004918081965405015 -0.02176691327298847 0.020460244841663255
1711 0.0030256316093591282 0.004978565583719296 -0.0012668045861104228
1699 0.00188071890983692 -0.0017341036816400435 0.003338092632432151
1764 -0.007440485002030991 0.0003139698785202198 -0.0001696567102215244
1188 -0.00257372167947096 0.006044910282456445 0.001259514946735018
1765 0.0039011357655866713 -0.007186955298264147 -0.0009987479948203512
1746 0.0056921479531649695 -0.004087330630353798 -0.004831248712019984
1750 0.00393269914218137 -0.0006840253825609782 0.005682165855584316
1766 -0.03524407544658873 0.04166507865918256 -0.015626792447422735
1202 0.0006148800763561946 -0.003060032454694296 0.002723558176006491
1733 0.00563748439156926 -0.016629388325642012 -0.006187372986670099
1716 0.003568098759846702 -0.004845359081853376 -0.0038257001798830403
1717 0.0034296434329335384 0.0068830431268309825 -0.004591085708843127
1172 0.0028779506842297204 0.0033377592256451606 -0.006170822467684324
1187 0.009923277421631021 0.0001592158151737639 0.0024039191174211553
1749 -0.001801050395195797 -0.0013120642864483925 -0.0042772237792753085
1748 -0.0012081618512661302 0.00231551026412477 0.00361156260751248
1712 0.004239612956067825 0.007138709109762563 -0.0059867577992291175
1731 0.002861820168879508 0.005603875081479482 -0.0024648044489782445
1747 0.009042786788402665 0.0005600753155246559 0.008545463045745537
1713 0.004655835141908145 0.0034693048024161777 0.0014800827566015908
1732 0.0030154785386952137 0.022398891394710706 -0.0013910921422559124
1714 -0.005884912828997609 -9.813686191707653e-05 0.00396537028352247
1715 0.00046857224786121565 -0.002150356978567463 0.006567914947923473
1700 -0.0009585529934979694 0.00371683354961169 0.0004900872746395262
1194 -0.006170518777001653 -0.003666555207247341 0.004915026771434966
1193 -0.007980923437974454 -0.0025204049681843165 -0.0033751821397065137
1206 0.009290587545504034 -0.013728979262868627 -0.008423404871168078
1207 -0.020136808261229485 -0.0070001979870215805 0.008574484866712959
1203 0.0059643478358347105 -0.0009536573798122631 0.002400097104016779
1211 -0.017608249153559807 0.008459701005146645 2.1330297901818828e-05
1191 -0.0059006382263351205 0.00965851844527932 -0.0065952049768780545
1192 0.0027333958462909666 -0.006812558776517903 0.005259016114937651
1185 -0.004006762260250217 -0.0018376806089899186 -0.002527872197994589
1204 0.0018770850530533609 0.009692120194747626 -0.0008493159868474393
1186 0.001360415014577046 -0.0010950239486805097 -0.0026165361554440192
1189 0.0044200158130775396 -0.002650607503249587 -0.0025064508706035857
1205 0.0012240922149896727 -0.010499580586550617 -8.527200153224753e-05
1190 0.006295884784535385 -0.0026624658987401506 -0.00023587338259339996
1210 -0.012605306426077533 0.02143540117668366 0.016794443318846775
526 0.0026631794745999413 -0.0035009015783143927 0.02710479284882641
2602 -0.0025120904004350937 -0.0022693860208193354 0.003199582955962546
513 0.0050611137142708516 0.0005198702553709124 -0.0054610206496296596
1200 -0.005526508244386614 -0.003023086492384342 0.0008214222866469945
1225 0.001798837426165479 0.005732561466901357 -0.008349831234590023
1226 -0.0010796061753414474 -0.009861815307685514 -0.0015438322787925348
1233 0.0024558230536081698 0.009417235749006266 -0.0236127264560458
2584 -0.0008820016434279094 -0.0021421355550922034 -0.004932942983906404
2601 0.00791995435907542 0.0033995676570334876 0.0020035080492307325
1201 -0.00014324603267233508 0.0018702028872115493 -0.004850551315267399
2399 -0.0014605888499488 0.002798225954980321 0.00785978799725393
2409 0.0013601071340721422 0.0021485142441695255 -0.00057634273309705
514 0.003420464824493822 -0.0005494831655779331 1.976143627086004e-05
2586 -0.009192992134598791 0.003933500252813512 0.004300955336398582
2596 -0.0023216550984757295 -0.000409694153853797 -0.002426986903074718
2595 0.0073918617358653006 -0.004354564835596427 0.0013752480929046687
2594 0.0031952710278048474 -0.00242223000066075 0.0038633684195592977
2609 0.002629182725524405 -0.005349137687125691 -0.0021162478468495817
2606 0.00041317055460028326 5.1498576926265e-05 0.0028116579860679998
2599 0.002912286374010027 -0.00685703967471538 0.0020930219331133275
2597 -0.0011034128994505473 -0.010725337046966937 -0.00318276760077825
2593 -0.0046711959419709626 -0.009213475407627033 0.006448895272826805
2598 0.004306451050909636 0.0022358210611778157 -0.004112250167053476
2600 -0.00047736848781484536 0.004367914302631194 -0.004221533010130447
2607 -0.012933929684893989 0.02969354970761431 0.026349726938887024
2605 0.030890657182436856 -0.014058150622186264 -3.284080559868485e-05
521 -0.0019767001578100732 0.0023099396448472403 -0.002840821041656486
534 -0.015676695559843763 0.000911067550646809 -0.015546152935218587
2592 -0.004769367911663632 -0.006084265962520493 0.009963254743928025
519 -0.00662215643941395 -0.001162403285390403 0.004178626925282485
2603 0.020191815935056263 -0.025553794014732515 0.05343616921259324
2407 -0.015893430503999387 0.015236271502288928 -0.01778155969135804
2400 0.003572214303053166 0.002334186134127391 0.006930994536024626
520 0.008585819916556025 0.002261989725257085 0.0043738691215962485
533 -0.020057852909472308 0.007901533325619972 0.01541822860942592
2398 0.00101204891192779 -0.0023763984316607827 -0.0007967272979620759
2397 0.006395861330164994 0.005514657363664888 -0.0028888194471146994
2431 0.007267327524662234 0.006224013324599265 0.0037726646442558104
2587 0.0015785514091464046 -0.009518489071038975 0.0037749168738064136
2591 0.004364035941957776 0.004916517558834702 -6.734594110683684e-05
2604 -0.005499400024349743 -0.004676997409192308 0.0020021998916307914
2588 -0.0011780138446712794 0.0023529981291591307 0.011386242954694759
2589 0.000336499436178377 0.0025868650374796937 -0.0071816346906888075
2410 0.006850296078539556 0.004022480300039648 -0.008131567191436366
2590 0.0005183633153790996 -0.0008460347565124618 0.003291048537741375
2423 0.0012576461201350177 -0.00024660456774962524 0.003231672779359183
2266 -0.005446675789482633 -0.03603812476615559 0.003604932605185569
2411 -0.0003856614100005768 -0.00022568136629441134 -0.002909091853536342
2422 0.009280518406873365 -0.004759057721884644 0.005666245446818864
2430 0.007658601147079607 0.010492105591435024 0.0018486470935401762
532 -0.007955060270821858 -0.00042579873279086235 0.02966846851475021
1126 0.004326671815643109 -0.002974883309915914 0.005896315641422385
1223 -0.0019799857235212296 0.005701604601460575 0.0006566970776585364
1224 -0.0026670386043097854 -0.0011896398964584224 -0.0021434313933380404
1134 0.00018068833516693173 0.003127886914192536 -0.000863650165742584
1232 -0.020445879011932212 -0.02522400155929671 0.01658992714256212
2425 0.011265340733586206 -0.016041205333309626 -0.010048292450270193
1231 -0.010312543103062236 0.003099261641527816 0.02806237420880317
2426 0.014787619587049763 0.01435398531593394 0.0019309310366256546
2413 -0.00298569043592457 0.007990607400452323 -0.0031106019770099657
2412 0.003975238510482253 -0.001706632272282569 0.003259435089073232
2414 -0.0007737012892293684 -0.00496460136037359 -0.0011180460337361037
2416 0.007052126527485998 0.0057007776293765185 -0.0007036598491049111
2415 0.004561342960230962 0.005185010112507744 0.002588120982950706
2294 -0.004356909755948201 0.006531699516491594 -0.02237910650366799
2427 -0.008089595884574348 0.011515484264636347 0.020779203048809952
2417 0.0036128356690409277 -0.006758748709465739 0.005943071751387901
1112 -0.006513454091447958 -0.0004060069664620665 -0.0005306413529005285
71 -0.0073369419622851565 0.0016852372346141899 0.006120938367054111
67 -0.0005683534941139127 -0.0056524506913597184 -0.00576689592873122
70 0.0018139549012646911 0.004073649135124861 0.0006609346993883257
1108 -0.012770288606789318 0.005659566890047881 0.018909554587869453
1097 0.008360596019836514 0.008880456962821075 0.0035101600448756397
1095 0.0020707529182474333 -0.005207194220935574 0.0015717640969848646
1096 -0.0011380184878715925 -0.0021706947491366363 0.004937606034897923
2527 -0.0030614237395936964 0.009284723182864194 -0.003634954501648678
2517 -0.0013371329061814669 -0.003956510869304451 -0.0005900996743540888
2514 0.0004885648195332863 -0.004589314157253396 0.001035154637166468
2515 2.9607412653480664e-05 0.0032320738891532543 0.0032518145341373142
1098 -0.0032335890889971667 -0.007349871371300201 -0.006831895409687037
1099 0.0032249767564674495 -0.004573450982138065 0.007794818238214413
1109 0.0345150022265629 0.00887973619498922 0.006512678488811941
85 0.01446261368398373 0.023831264188506583 0.01042649881971639
2526 -0.008263539861939428 -0.0293654829730345 -0.042706553217359736
72 -0.006557168507869025 0.004788457887896896 -0.007577222211031092
65 -4.789998333050378e-05 -0.00019855287960215498 0.0008266493376256214
59 0.0051535872655160886 0.005474725205331725 -0.01102674365431735
58 -6.228711134023631e-05 -0.006714255647682931 0.00718743535595034
61 0.0034749593893737547 -0.005995303670250614 0.0007140955780613578
66 0.0006198286948499779 -0.0024306409017547863 0.0084531010897173
77 0.0074073272661245495 0.0074732464961088305 0.02253065866624756
60 0.00039906695337850944 -0.00012091078591381514 -0.002977994096931931
75 -0.006584977237898098 -0.003674194650483838 -0.0007945201083226882
79 -0.007353311598237958 0.0052048191358885785 -0.004061044401754648
64 -0.0012819920408894277 -0.000707117558415938 0.0018655556386507947
63 0.0071046743228273665 -0.002915335184838868 -0.0047380164518335335
62 -0.0006660659501046222 0.005633944193898967 -0.009145214609609402
2516 0.00735221458894181 -0.0004666056985324065 0.0064372179858874735
78 -0.015337694830494386 0.009987600783270352 -0.01228303872578243
81 -0.006472940052489613 0.024277670415470194 0.01901806119340247
76 0.02815803712895245 0.008624785568690929 -0.006057233781389612
80 0.007158018977798875 0.008327485436804923 0.011986082382278513
2520 -0.005123418314764104 0.003972256001868035 -0.004527799466942233
2365 -0.001988315037807301 0.0017643711147443503 -0.0072706894677176245
2529 0.0037369393610919973 -0.01205967599177347 0.001068487224736137
2522 0.0068264277793111915 -0.007213416809667103 -0.006916109595101805
2513 -0.005278503326127195 -0.0009168920470161869 -0.003198217013013809
2521 0.009066491816483571 0.006349215159012183 0.004111513430174254
515 0.0026121829720933353 0.000903722305023336 -0.004024942661353952
2496 0.0002471672178620333 -0.0009691978190688907 -0.004137569943057254
2495 -0.0009453785372655565 0.0010186270150406328 -0.0021221795268529984
2531 0.007672092482342752 0.011065891435945274 -0.018748161044757027
518 0.00037251417738345423 0.0036627917139838324 -0.0066156869456420846
517 0.008455917522526299 -0.004964990885155025 -0.000512229061999848
2523 -0.0031786052853477035 -0.004505524674263168 0.008743939728740607
516 0.0016319881735222762 -0.009236361981018085 -0.002673716583372643
2388 -0.004680826166380881 -0.0021357117436668345 0.0049102326670695485
531 -0.006177564076644915 -0.009714098956944701 -0.011378981787752328
2389 -0.004605744929266824 0.005132685359143473 -0.0006237169305768599
2408 0.02800429395691174 0.00442818213564164 -0.018858928535996702
2401 -0.0024506638887380116 0.010350207894639868 -0.002971998582159814
2370 -0.004412196614318716 0.005287478455463587 0.008935420692996191
2371 -0.001244835428003425 0.004672837784465459 0.01046722375078983
2366 0.000494024099512722 -0.003304803380618638 0.009379828547498045
2376 0.010712569384187765 0.008605134608357573 -0.03448375070895261
2378 -0.023576607212446733 -0.013126724748636381 0.01071124435119374
2403 0.0072463467029822 0.01903570982496443 0.014196516803051947
2525 0.001712962694951259 -0.012226672453455765 -0.004438803621746292
2512 -0.004426224237965183 -0.005721811265825683 -0.005933139406323181
2385 0.003516919212719359 -1.955271061713575e-05 0.003561375292746181
2387 0.004490097633201281 0.0016604846011676973 -0.006939182331717279
2386 -0.001379808862232745 0.00034939659445600983 -0.006408201093099933
2384 -0.010810645593498057 -0.0007741493937244077 0.0031849968155647627
2509 0.0011687575789316139 -0.0019533921097995687 -0.009996284310049293
2510 -0.00829755326071557 -0.0018638107739472082 -0.0029462126310320007
2511 -0.0020319998664544083 0.002879940190975591 -0.004305143821794356
2524 -0.01780019195400186 -0.009886644224228556 0.003076445444996218
2368 0.002762402512217789 -0.0032273267685522643 -0.0016373998348115514
2367 -0.0007196092942820293 0.001805540692909018 0.008686005195015127
2377 0.024805958666723776 -0.009535495838058202 0.002558508770789898
2497 -0.0008808863963295616 -0.0008930413430211203 0.0007740092156806384
2498 -0.00012754709676744003 -0.0005862696515031145 0.0025829900340874393
2369 0.002035083236811839 -0.004327696255780855 0.0007165322700497227
2402 0.007354071178354421 0.0034959774788074507 0.0027279912110962563
2383 0.00017339909980805036 0.006819054310429821 0.0027292795949323163
2382 -0.0035082560191804415 -0.004385575789447088 0.006769029846619194
2265 0.036602760724234594 0.003418953991079632 -0.007208683058860448
529 -0.015505123608486694 0.005726571814143945 -0.011929114929303496
2585 0.0010040658302631128 0.005807101096720271 -0.002260519528942437
1631 -0.021282032458574334 0.02119771122536498 0.01682086091668963
2692 0.019941010528082847 0.002999557568294293 -0.011081790419992516
2682 0.005417804726257409 -0.0014132642133316952 0.011103007430672551
2477 -0.003124083305561749 0.010842931408183513 -0.03871414685723966
1571 -0.0011191703505030368 4.6741287121320384e-05 0.0033898821252875437
2671 0.001963467219329992 0.00028895582422190544 -0.003981555409038904
2292 0.008347925323993532 -0.002822569527256629 -0.008912246957024455
2672 -0.004618081547831366 -0.0011588585905322722 0.004184381421865612
2467 0.0015341097173143987 -0.00215808757434001 -0.005318726757245487
1600 0.00454530558038507 -0.0025718834593621387 -0.0016566480894137
2274 -0.0007445292359281348 0.005550113152187839 -0.00013539453161824267
2255 -0.006351700786317113 0.0011807716648636927 -0.00337164534871548
2273 -0.005899043661033409 0.0022088068006084613 -0.002546492109513351
2276 -0.0022552124146643627 0.005252353872360406 -0.0008332130303100346
2256 -0.005871532767302935 0.0037848454296802083 -0.0005298437714414694
2275 0.001418346874188681 -0.004124520826406282 -0.003998805760753298
2291 -0.008385211727169096 0.0059205486299643475 -0.003962532621207267
2272 -0.002373720627060156 -0.0009299933019390515 -0.0006884749497468014
2290 0.006052102780965749 0.004856540643687018 0.009324039715757938
2271 -0.001146200877601715 -0.0011684257597185468 0.002753581899267402
2297 -0.0039645596422724656 -0.010095410522959624 0.0009380866647512049
2476 0.015337438190308375 -0.01983665337991016 0.01662533428761214
2475 0.012189656977600528 -0.0030799463538461447 0.02341563194661191
2459 -0.00010863680633610988 -0.0014634598609507327 -0.004462648430580576
2460 0.001264904061183441 0.004922723641764452 0.0034456401197735472
2473 0.0030788475199725984 0.0011262019188297025 -0.0014199512749850575
2461 -0.005385886776648424 -0.0003478014394266341 0.0026820800112455734
2462 0.004585267620431537 -0.007063260390267984 0.002402771560370095
2448 0.0032350265156995926 -0.0031028914891157488 -0.0032658524715712374
2447 -0.0037294797176103504 -0.005404514908350888 0.007615261493611188
2474 -0.009194559315087949 0.016497077149049966 -0.017666397483119566
2686 0.009723785186241658 -0.01698201322753223 0.006618682641741306
2673 0.009966829531696104 -0.00032079834276835007 -0.0008012082807419801
2472 0.003828427377671815 0.0002002081752184437 -0.0019080491729393705
2463 0.013808840756339202 -0.003940785159276741 -0.003722441398096633
2466 -0.0028163411180156385 0.0009297831687712564 -0.007855564403509985
2464 0.0041507544912494955 0.0009929477155798943 0.0033568596960157964
2449 0.0034589275125402846 -0.004381435142264109 0.0007174179032478438
2277 -0.004063547345767853 -0.0022281233568697562 0.004377023478890908
2278 0.0010430273775542847 0.0005051497888337494 -0.004798566983531047
2465 -0.0036698572066484825 -0.00820369527459927 -0.0001319086035584749
2674 -0.003129382257067189 0.0005167083063064053 0.0049125216504050506
2675 0.002393227166111533 0.00037483260032213377 0.0018399012929136373
2293 0.0050824808981179215 0.013672151214522973 0.018047891246861666
2296 -0.026925882765328337 0.031126458959002366 -0.00206016110944406
2279 0.00415921691643465 -0.010876170751562797 -0.00018083801363731822
2289 -0.0009397411646909643 -0.0011997101833879358 0.0025162860328008046
2267 -0.014029357353713683 -0.026035039923197414 -0.0017411368837243503
2676 -0.009913621075083258 0.0075577208243443285 0.005087189368078115
2280 0.002414423229084414 -0.002188744440761846 0.0030461728047434826
2683 0.0006151010846293393 0.003253423116629437 -0.006677101599010551
2684 -0.0020322889991874968 0.0036993552346240833 -0.006233698837702767
2435 0.0015658468758406653 -0.0026889783829885374 -0.00499296805546025
2457 -0.004957256607004523 0.002186507912460299 -0.010244731121527876
2450 -0.006100131385479398 9.471075486608904e-07 0.007271907862527639
2436 0.002600455407962208 0.0018111601296705237 0.0026125038932546508
1621 0.0030160314548597776 -0.0016034500478384936 0.0023984807928665846
2421 -0.003456890673775373 -0.0024815331689182515 0.0014698605765320432
2429 -0.0231398548342764 0.011274600763656654 0.030534831917735445
2281 -0.00332160740325503 0.0033896510465844278 -0.0023015124574653502
2434 0.005979466915262439 0.0011072915333781347 0.0015685147198209147
1622 0.003762146923596716 -0.001639820423972825 -0.005425449699214955
1630 0.010299213011088559 -0.01967151647993346 0.0028717651288963824
2694 -0.009885637363320366 0.025072839273975845 -0.019344275862169857
2418 -0.0020604295548651234 -0.010536190233803382 0.0022348791405640577
1638 0.0024209045787666915 0.0023200807051864006 -0.0016372969744057962
1640 -0.003139283617968916 0.006474171111453479 0.004461059659823474
2688 0.011564338583613111 0.024095793922780984 3.1327428409657894e-05
2677 0.005476347757164248 0.007315635099424332 0.005653725131770307
2687 -0.0050323269747279634 0.0007101769056100602 0.010670214329311433
2693 0.02553407706267017 -0.0004320855189281112 0.005838551607413166
2678 0.00017784161972354189 -0.0007101525402132789 0.0036032596228554392
1637 0.0014116803996558553 -0.0036927877656441417 0.0009365167228956064
1636 -0.003683013612128326 0.004175800284316672 0.004026104799217969
1655 -0.020139032965807126 -0.026974789729035845 -0.0012304281042863816
1639 -0.0031559799455028723 0.0030943882476344906 0.0011738059446857589
2420 0.0006363772884189412 0.002920108628041302 -0.0060674415083442354
2451 0.0016968333783834253 -0.004836174437511757 0.008769583543734477
2452 0.011360814518881513 -0.0011103197397253778 -0.00024221588865232642
2419 -0.0014796771872871842 -0.003446199781836689 -0.003354752558354389
2458 0.014435821722445789 -0.018940164395726766 -0.002832892251114919
2433 0.009580972502832302 -0.005698256731974308 0.006277267101976036
2428 -0.010863628878142082 0.025052959399298864 0.014552191211585441
2432 0.0004508224163943268 0.004027412380913289 -0.004487491454487799
1656 0.005845766897550459 -0.001855887400807084 -0.002953378358144672
1871 0.019031480454383503 -0.01665446713785937 0.0054987182771604705
57 -0.0007155875800901094 -0.0053736164713584795 -0.001990340304111182
90 1.0902506153658059e-05 -0.0033287689067991954 -0.0022520383798039514
89 -0.0013852381908143775 -0.0020998264162385236 0.001425115771113934
108 -0.01011718128674356 0.020920398197249244 0.0056354253896864675
91 -0.0020631647295648557 0.0042772780788807654 -0.001981512850074992
107 0.001003946148198794 0.009253360789477437 -0.001926188337128981
92 0.004812003780624188 0.0036017024328832184 0.005839597881402089
2247 0.006464936097905375 0.001001635899192615 0.007810865486709606
2254 0.004701793830346931 -0.007368325264479794 -0.007124463084027697
2263 0.00047885791283057454 0.0014454849460770638 -0.00200239926842165
2248 -0.004474390515594609 -0.0003598678636233435 0.00830432576754381
2249 -0.001362665577912461 0.004885687932151872 -0.0027695680212855406
2253 -0.002643916254387243 -0.0028343240191961755 0.00427957285123221
2264 -0.006703760289653091 3.2505762448921776e-05 0.023017499362613554
2257 0.005453698638596978 0.005296885834958622 -0.0005856448057593695
2483 0.005679277857852354 0.002017238996993578 -0.003149226755194742
1587 0.0066711207451951365 0.00313961100080809 0.003374109922958917
1586 0.0018739524516662351 -0.004540224971036355 -0.00050409045274354
2482 -0.008067849717769358 0.0018424150869755054 -0.007344143123706868
2259 -0.0008488843429163062 0.0009618497632219223 0.0008254747261552855
2250 0.0033736604572270922 -0.0028619988370376603 -0.0029993629609353
1588 0.0016385415970391834 -0.005292560197075846 -0.00013180998046564271
2269 0.010279700178706754 0.0066865537961559775 -0.021998024657915574
93 -0.0037570163073985096 0.007591171595094174 0.002646102447767674
109 -0.010134099720899077 0.021263127232579154 -0.005223529397253231
2468 -0.0036404618118432187 -0.0023464487151123713 0.002819288959020335
106 -0.001491124547195944 -0.004869405044333698 0.008168258427036404
110 0.005721363504868905 0.0076843205694146375 -0.01983421601157413
1788 0.008672816087945201 0.003806677399387699 0.005205087053260564
95 0.0037789876566798183 0.00031743328503864996 0.0019105002115911227
94 -0.00441876786125725 0.0077771348031396145 0.003651203492853144
2252 -0.008371083210445308 0.00047285256870058083 -0.008918324274897851
2251 0.003995659382997362 -0.0074367314297758775 -0.0009726957056934671
2478 -0.007763470205112594 -0.0024140075652395996 0.010282965954066501
2258 0.0012536148390154273 -0.0068498954124428585 0.002684304624416897
2470 -0.0017168252563242226 0.0036687118329729674 0.00609053738838097
2268 0.024702849087182076 0.005346902784415463 0.0008847096414579436
2471 -0.004537327764009456 -0.003597687838947306 -0.00045000532676759216
2479 -0.009729265641882031 0.010760908623283987 -0.007457347978190113
1606 -0.018863137629184366 0.012844472573359262 0.005894059792102959
1590 -0.0009263740829420848 0.001264244349420625 0.007727455191286361
1589 -0.0013596172272461087 -0.0010626702934494543 0.001153541871474637
1605 0.006091917384927736 -0.021778936244280754 -0.003713753980637402

Bonds

1 11 1377 1378
2 11 1377 1393
3 16 1375 1376
4 4 1375 1377
5 11 1378 1379
6 12 1378 1394
7 11 1379 1380
8 12 1379 1395
9 11 1563 1564
10 12 1563 1576
11 4 1374 1393
12 7 1358 1374
13 7 1358 1375
14 7 1671 1685
15 7 1671 1686
16 16 1686 1687
17 4 1686 1688
18 5 1357 1358
19 11 1357 1359
20 8 1380 1381
21 11 1380 1392
22 16 1373 1374
23 11 1688 1689
24 11 1688 1704
25 11 1392 1393
26 12 1392 1399
27 4 1685 1704
28 12 1391 1398
29 11 1359 1360
30 12 1359 1369
31 16 1684 1685
32 14 1782 1791
33 14 1782 1792
34 11 1562 1563
35 11 1562 1575
36 11 1356 1357
37 12 1356 1368
38 8 1381 1382
39 5 1670 1671
40 11 1670 1672
41 11 1672 1673
42 12 1672 1680
43 11 1564 1565
44 12 1564 1577
45 11 1669 1670
46 12 1669 1679
47 12 1673 1681
48 11 1667 1668
49 11 1667 1673
50 11 1668 1669
51 12 1668 1678
52 11 1674 1675
53 12 1674 1682
54 8 1665 1666
55 11 1665 1674
56 8 1666 1667
57 11 1662 1663
58 11 1662 1675
59 12 1675 1683
60 5 1661 1662
61 4 1435 1454
62 11 1439 1440
63 12 1439 1455
64 11 1438 1439
65 11 1438 1454
66 11 1453 1454
67 12 1453 1460
68 12 1452 1459
69 11 1451 1452
70 11 1440 1441
71 12 1440 1456
72 11 2017 2018
73 12 2017 2027
74 11 2018 2019
75 12 2018 2028
76 5 2019 2020
77 11 2019 2021
78 16 1647 1648
79 7 1647 1661
80 11 1664 1665
81 12 1664 1677
82 11 1663 1664
83 12 1663 1676
84 8 1441 1442
85 11 1441 1453
86 16 1436 1437
87 4 1436 1438
88 11 1443 1444
89 11 1443 1452
90 8 1442 1443
91 11 1444 1445
92 12 1444 1457
93 16 2207 2208
94 7 2207 2221
95 7 2020 2034
96 7 2020 2035
97 5 2221 2222
98 11 2052 2053
99 12 2052 2059
100 4 2206 2207
101 11 2206 2211
102 4 2034 2053
103 16 2033 2034
104 8 2040 2041
105 11 2040 2052
106 11 1939 1940
107 12 1939 1955
108 11 2205 2206
109 12 2205 2218
110 8 2041 2042
111 11 2042 2043
112 11 2042 2051
113 12 2051 2058
114 11 2043 2044
115 12 2043 2056
116 11 2050 2051
117 11 2044 2045
118 12 2044 2057
119 11 2037 2038
120 11 2037 2053
121 11 2039 2040
122 12 2039 2055
123 11 1445 1446
124 12 1445 1458
125 11 2204 2205
126 12 2204 2217
127 4 2045 2046
128 11 2045 2050
129 16 2035 2036
130 4 2035 2037
131 11 2038 2039
132 12 2038 2054
133 11 1780 1781
134 12 1780 1790
135 6 1781 1782
136 11 1781 1783
137 16 2048 2049
138 4 2048 2050
139 7 2048 2060
140 11 297 298
141 12 297 310
142 11 296 297
143 11 296 305
144 11 1779 1780
145 12 1779 1789
146 16 2046 2047
147 7 2046 2060
148 5 2060 2061
149 4 299 300
150 11 299 304
151 16 300 301
152 7 300 314
153 12 1786 1796
154 11 1785 1786
155 12 1785 1795
156 11 298 299
157 12 298 311
158 11 2061 2062
159 11 2061 2074
160 11 2062 2063
161 12 2062 2075
162 12 2074 2082
163 11 2063 2064
164 12 2063 2076
165 5 314 315
166 12 328 336
167 8 1776 1777
168 11 1776 1785
169 12 1525 1533
170 8 2064 2065
171 11 2064 2073
172 5 1511 1512
173 11 1773 1774
174 11 1773 1786
175 11 1775 1776
176 12 1775 1788
177 11 1703 1704
178 12 1703 1710
179 8 1691 1692
180 11 1691 1703
181 9 2175 2176
182 11 2175 2177
183 11 2172 2173
184 11 2172 2179
185 11 1004 1005
186 12 1004 1011
187 11 2174 2175
188 12 2174 2189
189 11 2173 2174
190 12 2173 2188
191 2 2171 2172
192 10 2171 2186
193 10 2171 2187
194 8 992 993
195 11 992 1004
196 11 995 996
197 12 995 1008
198 11 994 995
199 11 994 1003
200 8 993 994
201 11 991 992
202 12 991 1007
203 15 2176 2190
204 1 2170 2171
205 10 2170 2184
206 10 2170 2185
207 11 996 997
208 12 996 1009
209 5 1212 1213
210 11 1219 1220
211 12 1219 1229
212 16 1198 1199
213 7 1198 1212
214 11 642 643
215 12 642 658
216 11 641 642
217 12 641 657
218 9 2177 2178
219 11 2177 2179
220 12 2179 2192
221 11 1522 1523
222 12 1522 1530
223 8 1692 1693
224 11 990 991
225 12 990 1006
226 11 989 990
227 11 989 1005
228 16 987 988
229 4 987 989
230 11 655 656
231 12 655 662
232 8 643 644
233 11 643 655
234 11 964 965
235 12 964 979
236 11 965 966
237 12 965 980
238 9 966 967
239 11 966 968
240 8 644 645
241 15 967 981
242 11 640 641
243 11 640 656
244 9 968 969
245 11 968 970
246 11 2211 2212
247 8 1940 1941
248 11 1940 1952
249 16 2209 2210
250 4 2209 2211
251 7 2209 2221
252 11 963 964
253 11 963 970
254 12 970 983
255 15 969 982
256 1 961 962
257 10 961 975
258 10 961 976
259 2 962 963
260 10 962 977
261 10 962 978
262 12 2212 2219
263 8 1941 1942
264 11 2203 2204
265 11 2203 2212
266 11 1942 1943
267 11 1942 1951
268 11 1943 1944
269 12 1943 1956
270 11 1944 1945
271 12 1944 1957
272 8 2202 2203
273 8 2201 2202
274 11 2201 2213
275 11 2200 2201
276 12 2200 2216
277 11 2213 2214
278 12 2213 2220
279 11 2199 2200
280 12 2199 2215
281 11 1524 1525
282 12 1524 1532
283 11 1512 1513
284 11 1512 1525
285 12 1523 1531
286 11 1517 1518
287 11 1517 1523
288 16 2194 2195
289 4 2195 2214
290 11 2198 2199
291 11 2198 2214
292 16 2196 2197
293 4 2196 2198
294 11 1513 1514
295 12 1513 1526
296 11 1514 1515
297 12 1514 1527
298 7 2164 2195
299 7 2164 2196
300 5 2163 2164
301 11 2163 2165
302 11 2165 2166
303 12 2165 2182
304 8 1515 1516
305 11 1515 1524
306 11 2162 2163
307 12 2162 2181
308 3 2169 2170
309 13 2169 2183
310 8 1516 1517
311 4 1197 1198
312 11 1197 1202
313 11 1196 1197
314 12 1196 1209
315 4 2166 2167
316 11 2166 2180
317 16 2167 2168
318 7 2167 2169
319 11 1518 1519
320 12 1518 1528
321 11 542 543
322 12 542 558
323 12 2180 2193
324 8 544 545
325 11 1195 1196
326 12 1195 1208
327 11 2161 2162
328 11 2161 2180
329 11 1952 1953
330 12 1952 1959
331 11 1218 1219
332 11 1218 1224
333 11 1213 1214
334 11 1213 1226
335 11 1214 1215
336 12 1214 1227
337 11 1215 1216
338 12 1215 1228
339 8 1216 1217
340 11 1216 1225
341 8 1217 1218
342 11 504 505
343 12 504 523
344 16 490 491
345 4 490 492
346 7 490 502
347 11 507 508
348 12 507 524
349 4 508 509
350 11 508 522
351 12 522 535
352 3 511 512
353 13 511 525
354 1 512 513
355 10 512 526
356 10 512 527
357 16 509 510
358 7 509 511
359 11 2567 2568
360 12 2567 2577
361 11 503 504
362 11 503 522
363 5 505 506
364 11 505 507
365 7 2569 2583
366 7 2569 2584
367 5 502 503
368 16 488 489
369 7 488 502
370 4 2583 2602
371 16 2582 2583
372 11 492 493
373 12 2350 2357
374 4 487 488
375 11 487 492
376 12 493 500
377 16 2332 2333
378 11 486 487
379 12 486 499
380 4 2333 2352
381 11 2351 2352
382 12 2351 2358
383 4 637 656
384 16 636 637
385 16 638 639
386 4 638 640
387 7 623 637
388 7 623 638
389 5 622 623
390 11 622 624
391 11 624 625
392 12 624 632
393 11 621 622
394 12 621 631
395 11 620 621
396 12 620 630
397 11 619 620
398 11 619 625
399 12 625 633
400 8 618 619
401 8 617 618
402 11 617 626
403 11 484 485
404 11 484 493
405 11 626 627
406 12 626 634
407 11 485 486
408 12 485 498
409 11 175 176
410 12 175 183
411 16 187 188
412 4 188 207
413 12 176 184
414 11 2282 2283
415 12 2282 2295
416 8 483 484
417 11 191 192
418 11 191 207
419 11 192 193
420 12 192 208
421 11 616 617
422 12 616 629
423 12 627 635
424 11 614 615
425 11 614 627
426 7 174 188
427 7 174 189
428 16 189 190
429 4 189 191
430 5 173 174
431 11 173 175
432 11 172 173
433 12 172 182
434 4 38 39
435 11 38 43
436 16 39 40
437 7 39 53
438 11 54 55
439 11 54 73
440 5 53 54
441 11 43 44
442 11 37 38
443 12 37 50
444 11 170 171
445 11 170 176
446 11 171 172
447 12 171 181
448 11 36 37
449 12 36 49
450 11 35 36
451 11 35 44
452 5 2518 2519
453 11 2518 2520
454 16 2534 2535
455 4 2534 2536
456 7 2519 2533
457 7 2519 2534
458 11 2536 2537
459 11 2536 2552
460 11 2537 2538
461 12 2537 2553
462 4 2533 2552
463 16 2532 2533
464 16 41 42
465 4 41 43
466 7 41 53
467 16 337 338
468 4 338 357
469 12 44 51
470 12 73 86
471 8 543 544
472 11 543 555
473 11 541 542
474 12 541 557
475 7 506 537
476 7 506 538
477 16 536 537
478 11 2538 2539
479 12 2538 2554
480 11 2349 2350
481 4 537 556
482 16 2347 2348
483 4 2347 2349
484 7 2347 2359
485 16 538 539
486 4 538 540
487 11 540 541
488 11 540 556
489 11 2361 2362
490 12 2361 2374
491 11 2362 2363
492 12 2362 2375
493 8 2363 2364
494 11 2363 2372
495 8 2364 2365
496 11 2372 2373
497 12 2372 2380
498 11 2360 2361
499 11 2360 2373
500 11 2551 2552
501 12 2551 2558
502 12 2373 2381
503 11 555 556
504 12 555 562
505 5 2359 2360
506 16 2345 2346
507 7 2345 2359
508 8 2539 2540
509 11 2539 2551
510 12 2550 2557
511 8 2540 2541
512 11 2549 2550
513 11 2541 2542
514 11 2541 2550
515 4 2344 2345
516 11 2344 2349
517 4 2544 2545
518 11 2544 2549
519 11 546 547
520 12 546 559
521 6 2246 2247
522 14 2246 2261
523 14 2246 2262
524 16 2545 2546
525 7 2545 2559
526 16 2547 2548
527 4 2547 2549
528 7 2547 2559
529 5 2559 2560
530 11 545 546
531 11 545 554
532 8 295 296
533 5 2568 2569
534 11 2568 2570
535 11 2566 2567
536 12 2566 2576
537 12 1573 1581
538 11 1572 1573
539 12 1572 1580
540 8 1565 1566
541 11 1565 1574
542 11 2572 2573
543 12 2572 2580
544 8 1566 1567
545 11 1567 1568
546 11 1567 1573
547 11 2570 2571
548 12 2570 2578
549 12 2571 2579
550 11 2565 2566
551 11 2565 2571
552 11 1574 1575
553 12 1574 1582
554 11 1568 1569
555 12 1568 1578
556 11 1569 1570
557 12 1569 1579
558 8 2564 2565
559 12 1575 1583
560 8 2563 2564
561 11 2563 2572
562 11 2300 2301
563 12 2300 2319
564 11 2562 2563
565 12 2562 2575
566 5 2301 2302
567 11 2301 2303
568 7 2302 2333
569 7 2302 2334
570 11 2303 2304
571 12 2303 2320
572 5 1570 1571
573 11 1570 1572
574 16 2286 2287
575 4 2286 2288
576 7 2286 2298
577 5 2298 2299
578 11 2299 2300
579 11 2299 2318
580 11 2288 2289
581 4 2304 2305
582 11 2304 2318
583 16 2334 2335
584 4 2334 2336
585 11 2561 2562
586 12 2561 2574
587 16 2284 2285
588 7 2284 2298
589 12 2573 2581
590 3 2307 2308
591 13 2307 2321
592 11 615 616
593 12 615 628
594 4 2283 2284
595 11 2283 2288
596 11 2437 2438
597 12 2437 2453
598 11 2438 2439
599 12 2438 2454
600 12 2318 2331
601 8 2440 2441
602 8 2439 2440
603 11 2439 2451
604 16 2305 2306
605 7 2305 2307
606 11 2441 2442
607 11 2441 2450
608 11 193 194
609 12 193 209
610 11 206 207
611 12 206 213
612 8 194 195
613 11 194 206
614 12 228 236
615 11 55 56
616 12 55 74
617 8 195 196
618 12 205 212
619 11 196 197
620 11 196 205
621 16 202 203
622 4 202 204
623 7 202 214
624 11 204 205
625 5 214 215
626 11 197 198
627 12 197 210
628 4 199 200
629 11 199 204
630 16 200 201
631 7 200 214
632 11 198 199
633 12 198 211
634 11 215 216
635 11 215 228
636 11 320 321
637 11 320 326
638 8 319 320
639 12 326 334
640 11 322 323
641 12 322 332
642 11 321 322
643 12 321 331
644 7 324 338
645 7 324 339
646 5 323 324
647 11 323 325
648 11 325 326
649 12 325 333
650 11 327 328
651 12 327 335
652 16 87 88
653 8 318 319
654 11 318 327
655 5 56 57
656 11 56 58
657 4 88 107
658 11 304 305
659 12 305 312
660 11 315 316
661 11 315 328
662 11 1778 1779
663 11 1778 1784
664 16 302 303
665 4 302 304
666 7 302 314
667 11 317 318
668 12 317 330
669 11 2560 2561
670 11 2560 2573
671 11 1783 1784
672 12 1783 1793
673 12 1784 1794
674 11 98 99
675 12 98 111
676 11 316 317
677 12 316 329
678 12 105 112
679 16 102 103
680 4 102 104
681 7 102 114
682 11 104 105
683 4 99 100
684 11 99 104
685 16 100 101
686 7 100 114
687 5 114 115
688 11 115 116
689 11 115 128
690 11 116 117
691 12 116 129
692 12 128 136
693 8 1777 1778
694 12 2260 2270
695 11 96 97
696 11 96 105
697 11 97 98
698 12 97 110
699 5 1561 1562
700 16 1549 1550
701 4 1549 1551
702 7 1549 1561
703 11 1382 1383
704 11 1382 1391
705 16 1534 1535
706 4 1535 1554
707 8 1541 1542
708 11 1541 1553
709 11 1553 1554
710 12 1553 1560
711 16 2085 2086
712 4 2085 2087
713 11 1544 1545
714 12 1544 1557
715 4 1546 1547
716 11 1546 1551
717 11 1545 1546
718 12 1545 1558
719 8 1542 1543
720 11 1543 1544
721 11 1543 1552
722 11 1551 1552
723 12 1552 1559
724 11 2087 2088
725 11 2087 2103
726 15 831 844
727 12 832 845
728 9 830 831
729 11 830 832
730 11 825 826
731 11 825 832
732 11 1540 1541
733 12 1540 1556
734 11 826 827
735 12 826 841
736 11 2102 2103
737 12 2102 2109
738 7 2070 2084
739 7 2070 2085
740 16 1547 1548
741 7 1547 1561
742 11 827 828
743 12 827 842
744 11 1390 1391
745 9 828 829
746 11 828 830
747 4 2084 2103
748 11 2021 2022
749 12 2021 2029
750 16 1388 1389
751 4 1388 1390
752 7 1388 1400
753 15 2316 2329
754 7 1404 1435
755 7 1404 1436
756 11 1402 1403
757 12 1402 1421
758 12 2022 2030
759 5 1403 1404
760 11 1403 1405
761 12 1420 1433
762 4 1406 1407
763 11 1406 1420
764 11 1405 1406
765 12 1405 1422
766 16 1407 1408
767 7 1407 1409
768 11 2311 2312
769 12 2311 2326
770 11 2310 2311
771 11 2310 2317
772 11 2312 2313
773 12 2312 2327
774 8 2014 2015
775 11 2014 2023
776 11 2013 2014
777 12 2013 2026
778 11 2011 2012
779 11 2011 2024
780 11 2012 2013
781 12 2012 2025
782 5 2010 2011
783 16 1996 1997
784 7 1996 2010
785 16 1998 1999
786 4 1998 2000
787 7 1998 2010
788 12 2024 2032
789 9 2313 2314
790 11 2313 2315
791 15 2314 2328
792 12 2317 2330
793 9 2315 2316
794 11 2315 2317
795 11 2016 2017
796 11 2016 2022
797 11 1401 1402
798 11 1401 1420
799 5 1400 1401
800 3 1409 1410
801 13 1409 1423
802 1 1410 1411
803 10 1410 1424
804 10 1410 1425
805 12 2235 2245
806 11 2222 2223
807 11 2222 2235
808 11 227 228
809 12 227 235
810 11 1938 1939
811 12 1938 1954
812 8 2226 2227
813 12 2233 2243
814 11 2234 2235
815 12 2234 2244
816 8 2225 2226
817 11 2225 2234
818 11 2232 2233
819 12 2232 2242
820 11 2227 2228
821 11 2227 2233
822 11 2228 2229
823 12 2228 2238
824 11 2229 2230
825 12 2229 2239
826 6 2230 2231
827 11 2230 2232
828 14 2231 2240
829 14 2231 2241
830 12 226 234
831 11 225 226
832 12 225 233
833 11 1804 1805
834 12 1804 1816
835 11 1805 1806
836 12 1805 1817
837 11 1826 1827
838 11 1826 1842
839 5 1806 1807
840 11 1806 1808
841 11 1808 1809
842 12 1808 1818
843 16 1824 1825
844 4 1824 1826
845 7 1807 1823
846 7 1807 1824
847 4 1823 1842
848 16 1822 1823
849 11 1827 1828
850 12 1827 1843
851 11 1803 1804
852 11 1803 1809
853 5 223 224
854 11 223 225
855 11 221 222
856 12 221 231
857 12 1809 1819
858 11 1841 1842
859 12 1841 1848
860 8 219 220
861 11 220 221
862 11 220 226
863 11 222 223
864 12 222 232
865 8 218 219
866 11 218 227
867 8 1802 1803
868 11 1828 1829
869 12 1828 1844
870 7 224 238
871 7 224 239
872 11 2137 2138
873 11 2137 2153
874 16 2135 2136
875 4 2135 2137
876 11 2138 2139
877 12 2138 2154
878 11 2073 2074
879 12 2073 2081
880 5 2069 2070
881 11 2069 2071
882 11 2068 2069
883 12 2068 2078
884 16 2083 2084
885 11 2071 2072
886 12 2071 2079
887 11 1937 1938
888 11 1937 1953
889 16 1935 1936
890 4 1935 1937
891 7 1920 1934
892 7 1920 1935
893 11 2067 2068
894 12 2067 2077
895 12 2072 2080
896 8 2065 2066
897 11 2066 2067
898 11 2066 2072
899 11 1918 1919
900 12 1918 1928
901 5 1919 1920
902 11 1919 1921
903 11 1917 1918
904 12 1917 1927
905 11 1916 1917
906 11 1916 1922
907 11 1810 1811
908 12 1810 1820
909 12 1811 1821
910 6 1 2
911 14 1 16
912 14 1 17
913 11 4 5
914 12 4 19
915 11 2 3
916 11 2 15
917 11 3 4
918 12 3 18
919 8 1915 1916
920 8 1914 1915
921 11 1914 1923
922 8 1801 1802
923 11 1801 1810
924 11 1923 1924
925 12 1923 1931
926 11 2139 2140
927 12 2139 2155
928 12 1922 1930
929 11 1921 1922
930 12 1921 1929
931 4 1934 1953
932 11 1538 1539
933 11 1538 1554
934 7 1521 1535
935 7 1521 1536
936 11 1539 1540
937 12 1539 1555
938 16 1536 1537
939 4 1536 1538
940 15 1280 1293
941 4 1385 1386
942 11 1385 1390
943 15 2178 2191
944 11 1383 1384
945 12 1383 1396
946 11 1384 1385
947 12 1384 1397
948 16 788 789
949 4 788 790
950 5 772 773
951 11 772 774
952 7 773 787
953 7 773 788
954 11 1145 1146
955 12 1145 1158
956 11 1144 1145
957 11 1144 1153
958 12 1153 1160
959 11 771 772
960 12 771 781
961 11 1146 1147
962 12 1146 1159
963 11 1152 1153
964 11 791 792
965 12 791 807
966 11 790 791
967 11 790 806
968 4 1147 1148
969 11 1147 1152
970 8 1143 1144
971 16 1150 1151
972 4 1150 1152
973 7 1150 1162
974 8 1142 1143
975 11 1142 1154
976 11 1154 1155
977 12 1154 1161
978 11 646 647
979 12 646 659
980 11 645 646
981 11 645 654
982 16 1434 1435
983 2 1411 1412
984 10 1411 1426
985 10 1411 1427
986 16 1386 1387
987 7 1386 1400
988 11 1413 1414
989 12 1413 1428
990 11 1412 1413
991 11 1412 1419
992 11 647 648
993 12 647 660
994 12 654 661
995 11 653 654
996 16 651 652
997 4 651 653
998 7 651 663
999 4 648 649
1000 11 648 653
1001 5 663 664
1002 16 649 650
1003 7 649 663
1004 11 1414 1415
1005 12 1414 1429
1006 11 664 665
1007 11 664 677
1008 11 665 666
1009 12 665 678
1010 11 666 667
1011 12 666 679
1012 9 1415 1416
1013 11 1415 1417
1014 9 1417 1418
1015 11 1417 1419
1016 12 1419 1432
1017 15 1418 1431
1018 11 1141 1142
1019 12 1141 1157
1020 11 1140 1141
1021 12 1140 1156
1022 12 677 685
1023 14 884 893
1024 14 884 894
1025 11 1139 1140
1026 11 1139 1155
1027 15 1416 1430
1028 11 2224 2225
1029 12 2224 2237
1030 11 885 886
1031 12 885 895
1032 11 2223 2224
1033 12 2223 2236
1034 12 1951 1958
1035 4 1945 1946
1036 11 1945 1950
1037 11 1950 1951
1038 16 1946 1947
1039 7 1946 1960
1040 5 1960 1961
1041 16 1948 1949
1042 4 1948 1950
1043 7 1948 1960
1044 11 1973 1974
1045 12 1973 1981
1046 12 1974 1982
1047 8 1964 1965
1048 11 1964 1973
1049 11 1963 1964
1050 12 1963 1976
1051 11 1961 1962
1052 11 1961 1974
1053 11 1962 1963
1054 12 1962 1975
1055 11 2152 2153
1056 12 2152 2159
1057 8 2140 2141
1058 11 2140 2152
1059 8 2141 2142
1060 5 364 365
1061 8 1965 1966
1062 5 1520 1521
1063 11 1520 1522
1064 11 770 771
1065 12 770 780
1066 9 1279 1280
1067 11 1279 1281
1068 15 1278 1292
1069 11 774 775
1070 12 774 782
1071 9 1277 1278
1072 11 1277 1279
1073 11 1519 1520
1074 12 1519 1529
1075 11 1276 1277
1076 12 1276 1291
1077 12 2151 2158
1078 11 2142 2143
1079 11 2142 2151
1080 16 1933 1934
1081 11 2150 2151
1082 11 2143 2144
1083 12 2143 2156
1084 16 2148 2149
1085 4 2148 2150
1086 7 2148 2160
1087 11 2144 2145
1088 12 2144 2157
1089 4 2145 2146
1090 11 2145 2150
1091 5 2160 2161
1092 16 2146 2147
1093 7 2146 2160
1094 12 775 783
1095 11 769 770
1096 11 769 775
1097 8 768 769
1098 8 767 768
1099 11 767 776
1100 11 776 777
1101 12 776 784
1102 12 384 397
1103 11 766 767
1104 12 766 779
1105 16 350 351
1106 7 350 364
1107 11 365 366
1108 11 365 384
1109 12 777 785
1110 4 787 806
1111 12 2628 2641
1112 16 786 787
1113 8 793 794
1114 11 793 805
1115 11 792 793
1116 12 792 808
1117 11 805 806
1118 12 805 812
1119 11 2341 2342
1120 11 2341 2350
1121 8 2340 2341
1122 8 2339 2340
1123 11 2339 2351
1124 11 796 797
1125 12 796 809
1126 11 797 798
1127 12 797 810
1128 8 794 795
1129 11 795 796
1130 11 795 804
1131 4 798 799
1132 11 798 803
1133 11 803 804
1134 12 804 811
1135 6 899 900
1136 14 899 914
1137 14 899 915
1138 12 913 923
1139 15 2627 2640
1140 9 2626 2627
1141 11 2626 2628
1142 15 2625 2639
1143 4 587 606
1144 9 2624 2625
1145 11 2624 2626
1146 16 801 802
1147 4 801 803
1148 7 801 813
1149 11 2338 2339
1150 12 2338 2354
1151 11 900 901
1152 11 900 913
1153 5 572 573
1154 11 572 574
1155 11 574 575
1156 12 574 582
1157 12 575 583
1158 11 605 606
1159 12 605 612
1160 16 799 800
1161 7 799 813
1162 11 912 913
1163 12 912 922
1164 11 901 902
1165 12 901 916
1166 11 569 570
1167 11 569 575
1168 16 586 587
1169 11 571 572
1170 12 571 581
1171 11 570 571
1172 12 570 580
1173 6 883 884
1174 11 883 885
1175 8 667 668
1176 11 667 676
1177 11 676 677
1178 12 676 684
1179 8 482 483
1180 11 482 494
1181 11 481 482
1182 12 481 497
1183 11 480 481
1184 12 480 496
1185 11 494 495
1186 12 494 501
1187 11 479 480
1188 11 479 495
1189 16 477 478
1190 4 477 479
1191 4 476 495
1192 16 475 476
1193 11 876 877
1194 12 876 889
1195 7 460 476
1196 7 460 477
1197 5 459 460
1198 11 459 461
1199 11 461 462
1200 12 461 471
1201 11 458 459
1202 12 458 470
1203 11 877 878
1204 12 877 890
1205 16 601 602
1206 4 601 603
1207 7 601 613
1208 5 613 614
1209 11 457 458
1210 12 457 469
1211 12 604 611
1212 11 882 883
1213 12 882 892
1214 11 881 882
1215 12 881 891
1216 12 462 472
1217 11 603 604
1218 8 34 35
1219 11 875 876
1220 11 875 888
1221 11 356 357
1222 12 356 363
1223 8 169 170
1224 11 880 881
1225 11 880 886
1226 8 879 880
1227 8 878 879
1228 11 878 887
1229 11 167 168
1230 12 167 180
1231 12 886 896
1232 8 168 169
1233 11 168 177
1234 11 177 178
1235 12 177 185
1236 11 166 167
1237 12 166 179
1238 11 165 166
1239 11 165 178
1240 12 178 186
1241 8 344 345
1242 11 344 356
1243 8 345 346
1244 11 346 347
1245 11 346 355
1246 12 355 362
1247 11 32 33
1248 12 32 48
1249 5 164 165
1250 16 152 153
1251 4 152 154
1252 7 152 164
1253 16 150 151
1254 7 150 164
1255 12 888 898
1256 11 887 888
1257 12 887 897
1258 11 354 355
1259 11 154 155
1260 12 155 162
1261 4 149 150
1262 11 149 154
1263 11 347 348
1264 12 347 360
1265 11 31 32
1266 12 31 47
1267 11 343 344
1268 12 343 359
1269 16 352 353
1270 4 352 354
1271 7 352 364
1272 11 341 342
1273 11 341 357
1274 11 348 349
1275 12 348 361
1276 4 349 350
1277 11 349 354
1278 5 874 875
1279 8 33 34
1280 11 33 45
1281 11 2342 2343
1282 12 2342 2355
1283 11 2542 2543
1284 12 2542 2555
1285 11 156 157
1286 12 156 163
1287 11 342 343
1288 12 342 358
1289 11 566 567
1290 12 566 579
1291 8 568 569
1292 11 2343 2344
1293 12 2343 2356
1294 12 554 561
1295 11 2543 2544
1296 12 2543 2556
1297 11 547 548
1298 12 547 560
1299 4 548 549
1300 11 548 553
1301 11 553 554
1302 16 549 550
1303 7 549 563
1304 16 551 552
1305 4 551 553
1306 7 551 563
1307 5 563 564
1308 11 765 766
1309 12 765 778
1310 11 565 566
1311 12 565 578
1312 8 567 568
1313 11 567 576
1314 16 137 138
1315 11 564 565
1316 11 564 577
1317 11 576 577
1318 12 576 584
1319 12 577 585
1320 11 764 765
1321 11 764 777
1322 4 138 157
1323 5 763 764
1324 16 751 752
1325 4 751 753
1326 7 751 763
1327 8 294 295
1328 11 294 306
1329 11 293 294
1330 12 293 309
1331 11 2088 2089
1332 12 2088 2104
1333 2 824 825
1334 10 824 839
1335 10 824 840
1336 11 306 307
1337 12 306 313
1338 7 573 587
1339 7 573 588
1340 11 292 293
1341 12 292 308
1342 8 2090 2091
1343 11 2090 2102
1344 5 813 814
1345 11 2337 2338
1346 12 2337 2353
1347 11 2336 2337
1348 11 2336 2352
1349 16 820 821
1350 7 820 822
1351 3 822 823
1352 13 822 836
1353 4 819 820
1354 11 819 833
1355 12 833 846
1356 11 814 815
1357 11 814 833
1358 1 823 824
1359 10 823 837
1360 10 823 838
1361 11 2089 2090
1362 12 2089 2105
1363 8 2091 2092
1364 16 588 589
1365 4 588 590
1366 11 590 591
1367 11 590 606
1368 11 591 592
1369 12 591 607
1370 11 592 593
1371 12 592 608
1372 11 291 292
1373 11 291 307
1374 16 289 290
1375 4 289 291
1376 11 272 273
1377 12 272 282
1378 7 274 288
1379 7 274 289
1380 12 725 733
1381 1 2308 2309
1382 10 2308 2322
1383 10 2308 2323
1384 11 2023 2024
1385 12 2023 2031
1386 8 2015 2016
1387 11 818 819
1388 12 818 835
1389 8 593 594
1390 11 593 605
1391 11 815 816
1392 12 815 834
1393 5 816 817
1394 11 816 818
1395 11 852 853
1396 12 852 868
1397 11 853 854
1398 12 853 869
1399 2 2309 2310
1400 10 2309 2324
1401 10 2309 2325
1402 4 598 599
1403 11 598 603
1404 16 599 600
1405 7 599 613
1406 16 849 850
1407 4 849 851
1408 11 851 852
1409 11 851 867
1410 7 817 848
1411 7 817 849
1412 4 848 867
1413 16 847 848
1414 11 597 598
1415 12 597 610
1416 11 866 867
1417 12 866 873
1418 8 854 855
1419 11 854 866
1420 8 855 856
1421 11 595 596
1422 11 595 604
1423 8 594 595
1424 11 596 597
1425 12 596 609
1426 12 865 872
1427 11 864 865
1428 11 856 857
1429 11 856 865
1430 11 857 858
1431 12 857 870
1432 16 862 863
1433 4 862 864
1434 7 862 874
1435 4 859 860
1436 11 859 864
1437 14 435 444
1438 14 435 445
1439 11 216 217
1440 12 216 229
1441 11 217 218
1442 12 217 230
1443 16 860 861
1444 7 860 874
1445 11 433 434
1446 12 433 443
1447 11 432 433
1448 12 432 442
1449 11 45 46
1450 12 45 52
1451 11 30 31
1452 11 30 46
1453 11 858 859
1454 12 858 871
1455 6 434 435
1456 11 434 436
1457 12 437 447
1458 11 436 437
1459 12 436 446
1460 16 28 29
1461 4 28 30
1462 11 431 432
1463 11 431 437
1464 16 26 27
1465 4 27 46
1466 7 11 27
1467 7 11 28
1468 5 10 11
1469 11 10 12
1470 11 9 10
1471 12 9 21
1472 11 8 9
1473 12 8 20
1474 11 12 13
1475 12 12 22
1476 16 237 238
1477 12 13 23
1478 11 7 8
1479 11 7 13
1480 8 5 6
1481 11 5 14
1482 12 15 25
1483 8 6 7
1484 16 339 340
1485 4 339 341
1486 11 127 128
1487 12 127 135
1488 11 117 118
1489 12 117 130
1490 8 118 119
1491 11 118 127
1492 11 271 272
1493 12 271 281
1494 11 1800 1801
1495 12 1800 1815
1496 11 1799 1800
1497 12 1799 1814
1498 6 1797 1798
1499 14 1797 1812
1500 14 1797 1813
1501 11 1798 1799
1502 11 1798 1811
1503 4 288 307
1504 12 126 134
1505 16 287 288
1506 11 122 123
1507 12 122 132
1508 11 120 121
1509 11 120 126
1510 11 121 122
1511 12 121 131
1512 8 119 120
1513 11 141 142
1514 11 141 157
1515 7 124 138
1516 7 124 139
1517 11 125 126
1518 12 125 133
1519 16 139 140
1520 4 139 141
1521 11 14 15
1522 12 14 24
1523 5 123 124
1524 11 123 125
1525 5 273 274
1526 11 273 275
1527 11 275 276
1528 12 275 283
1529 11 270 271
1530 11 270 276
1531 12 276 284
1532 8 269 270
1533 15 829 843
1534 11 1315 1316
1535 12 1315 1322
1536 8 1043 1044
1537 8 1042 1043
1538 11 1042 1054
1539 11 1041 1042
1540 12 1041 1057
1541 11 1040 1041
1542 12 1040 1056
1543 16 1296 1297
1544 12 1625 1633
1545 11 1624 1625
1546 12 1624 1632
1547 11 1612 1613
1548 11 1612 1625
1549 4 1297 1316
1550 11 1264 1265
1551 12 1264 1283
1552 11 1263 1264
1553 11 1263 1282
1554 7 1266 1297
1555 7 1266 1298
1556 5 1265 1266
1557 11 1265 1267
1558 16 1298 1299
1559 4 1298 1300
1560 11 1300 1301
1561 11 1300 1316
1562 12 1282 1295
1563 11 1267 1268
1564 12 1267 1284
1565 5 1262 1263
1566 16 1250 1251
1567 4 1250 1252
1568 7 1250 1262
1569 5 1611 1612
1570 4 1268 1269
1571 11 1268 1282
1572 16 1248 1249
1573 7 1248 1262
1574 8 1615 1616
1575 11 1615 1624
1576 11 1617 1618
1577 11 1617 1623
1578 16 1597 1598
1579 7 1597 1611
1580 8 1303 1304
1581 11 1303 1315
1582 16 1269 1270
1583 7 1269 1271
1584 11 1054 1055
1585 12 1054 1061
1586 11 1618 1619
1587 12 1618 1628
1588 11 2000 2001
1589 4 1995 1996
1590 11 1995 2000
1591 11 1044 1045
1592 11 1044 1053
1593 12 1053 1060
1594 11 1994 1995
1595 12 1994 2007
1596 12 2001 2008
1597 12 1314 1321
1598 11 1993 1994
1599 12 1993 2006
1600 11 1992 1993
1601 11 1992 2001
1602 4 1047 1048
1603 11 1047 1052
1604 11 1325 1326
1605 12 1325 1338
1606 16 1311 1312
1607 4 1311 1313
1608 7 1311 1323
1609 16 1048 1049
1610 7 1048 1062
1611 11 1324 1325
1612 11 1324 1337
1613 5 1323 1324
1614 11 1052 1053
1615 16 1050 1051
1616 4 1050 1052
1617 7 1050 1062
1618 5 1062 1063
1619 11 1063 1064
1620 11 1063 1076
1621 12 1076 1084
1622 11 1619 1620
1623 12 1619 1629
1624 12 1337 1347
1625 11 1313 1314
1626 11 1045 1046
1627 12 1045 1058
1628 11 1075 1076
1629 12 1075 1083
1630 11 1336 1337
1631 12 1336 1346
1632 11 1046 1047
1633 12 1046 1059
1634 11 1064 1065
1635 12 1064 1077
1636 16 1309 1310
1637 7 1309 1323
1638 15 1865 1879
1639 8 1991 1992
1640 11 1326 1327
1641 12 1326 1339
1642 8 1829 1830
1643 11 1829 1841
1644 11 2002 2003
1645 12 2002 2009
1646 8 1990 1991
1647 11 1990 2002
1648 16 239 240
1649 4 239 241
1650 8 1830 1831
1651 8 1327 1328
1652 11 1327 1336
1653 12 1840 1847
1654 11 1831 1832
1655 11 1831 1840
1656 11 1989 1990
1657 12 1989 2005
1658 11 1988 1989
1659 12 1988 2004
1660 11 2121 2122
1661 12 2121 2129
1662 11 1832 1833
1663 12 1832 1845
1664 12 1869 1882
1665 16 1837 1838
1666 4 1837 1839
1667 7 1837 1849
1668 11 1850 1851
1669 11 1850 1869
1670 11 1839 1840
1671 5 1849 1850
1672 4 1834 1835
1673 11 1834 1839
1674 16 1835 1836
1675 7 1835 1849
1676 11 1851 1852
1677 12 1851 1870
1678 12 2122 2130
1679 11 1833 1834
1680 12 1833 1846
1681 5 2119 2120
1682 11 2119 2121
1683 4 2134 2153
1684 7 2120 2134
1685 7 2120 2135
1686 8 1328 1329
1687 5 1852 1853
1688 11 1852 1854
1689 11 2116 2117
1690 11 2116 2122
1691 4 1855 1856
1692 11 1855 1869
1693 16 2133 2134
1694 11 242 243
1695 12 242 258
1696 11 241 242
1697 11 241 257
1698 11 1913 1914
1699 12 1913 1926
1700 11 2118 2119
1701 12 2118 2128
1702 8 2115 2116
1703 11 2117 2118
1704 12 2117 2127
1705 3 1271 1272
1706 13 1271 1285
1707 12 1924 1932
1708 8 2114 2115
1709 11 2114 2123
1710 11 2123 2124
1711 12 2123 2131
1712 11 1912 1913
1713 12 1912 1925
1714 11 1911 1912
1715 11 1911 1924
1716 5 1910 1911
1717 16 1898 1899
1718 4 1898 1900
1719 7 1898 1910
1720 16 1896 1897
1721 7 1896 1910
1722 12 2124 2132
1723 1 1272 1273
1724 10 1272 1286
1725 10 1272 1287
1726 11 1900 1901
1727 4 1895 1896
1728 11 1895 1900
1729 12 1901 1908
1730 11 1894 1895
1731 12 1894 1907
1732 2 1722 1723
1733 10 1722 1737
1734 10 1722 1738
1735 1 1721 1722
1736 10 1721 1735
1737 10 1721 1736
1738 11 1892 1893
1739 11 1892 1901
1740 11 1723 1724
1741 11 1723 1730
1742 12 1730 1743
1743 9 1728 1729
1744 11 1728 1730
1745 15 1729 1742
1746 11 1252 1253
1747 11 1039 1040
1748 11 1039 1055
1749 16 1148 1149
1750 7 1148 1162
1751 5 1162 1163
1752 11 1163 1164
1753 11 1163 1176
1754 12 1176 1184
1755 7 1022 1036
1756 7 1022 1037
1757 4 1036 1055
1758 11 1020 1021
1759 12 1020 1030
1760 16 1035 1036
1761 5 1021 1022
1762 11 1021 1023
1763 11 1023 1024
1764 12 1023 1031
1765 12 1024 1032
1766 16 1037 1038
1767 4 1037 1039
1768 11 1019 1020
1769 12 1019 1029
1770 11 906 907
1771 12 906 918
1772 11 907 908
1773 12 907 919
1774 5 908 909
1775 11 908 910
1776 2 2620 2621
1777 10 2620 2635
1778 10 2620 2636
1779 11 1175 1176
1780 12 1175 1183
1781 11 1164 1165
1782 12 1164 1177
1783 11 1018 1019
1784 11 1018 1024
1785 11 910 911
1786 12 910 920
1787 16 924 925
1788 7 909 925
1789 7 909 926
1790 16 926 927
1791 4 926 928
1792 12 1253 1260
1793 4 925 944
1794 16 1135 1136
1795 11 905 906
1796 11 905 911
1797 12 911 921
1798 8 1017 1018
1799 11 928 929
1800 11 928 944
1801 11 929 930
1802 12 929 945
1803 11 930 931
1804 12 930 946
1805 8 931 932
1806 11 931 943
1807 11 943 944
1808 12 943 950
1809 16 1137 1138
1810 4 1137 1139
1811 4 1136 1155
1812 7 1122 1136
1813 7 1122 1137
1814 8 932 933
1815 11 1120 1121
1816 12 1120 1130
1817 5 1121 1122
1818 11 1121 1123
1819 11 1119 1120
1820 12 1119 1129
1821 11 933 934
1822 11 933 942
1823 11 934 935
1824 12 934 947
1825 12 942 949
1826 11 366 367
1827 12 366 385
1828 11 1966 1967
1829 11 1966 1972
1830 11 1967 1968
1831 12 1967 1977
1832 11 1987 1988
1833 11 1987 2003
1834 16 1983 1984
1835 4 1984 2003
1836 11 1971 1972
1837 12 1971 1979
1838 12 1972 1980
1839 11 1968 1969
1840 12 1968 1978
1841 5 1969 1970
1842 11 1969 1971
1843 7 1970 1984
1844 7 1970 1985
1845 16 1985 1986
1846 4 1985 1987
1847 16 400 401
1848 4 400 402
1849 5 367 368
1850 11 367 369
1851 11 403 404
1852 12 403 419
1853 7 368 399
1854 7 368 400
1855 11 402 403
1856 11 402 418
1857 11 404 405
1858 12 404 420
1859 12 1281 1294
1860 1 2619 2620
1861 10 2619 2633
1862 10 2619 2634
1863 8 1166 1167
1864 11 1166 1175
1865 4 370 371
1866 11 370 384
1867 11 1275 1276
1868 12 1275 1290
1869 3 1720 1721
1870 13 1720 1734
1871 16 371 372
1872 7 371 373
1873 2 1273 1274
1874 10 1273 1288
1875 10 1273 1289
1876 11 1724 1725
1877 12 1724 1739
1878 11 1725 1726
1879 12 1725 1740
1880 15 1727 1741
1881 9 1726 1727
1882 11 1726 1728
1883 11 369 370
1884 12 369 386
1885 11 1274 1275
1886 11 1274 1281
1887 11 1165 1166
1888 12 1165 1178
1889 1 374 375
1890 10 374 388
1891 10 374 389
1892 8 1167 1168
1893 11 1169 1170
1894 12 1169 1179
1895 11 1168 1169
1896 11 1168 1174
1897 12 1174 1182
1898 11 1170 1171
1899 12 1170 1180
1900 11 1173 1174
1901 12 1173 1181
1902 3 373 374
1903 13 373 387
1904 2 375 376
1905 10 375 390
1906 10 375 391
1907 5 1171 1172
1908 11 1171 1173
1909 12 383 396
1910 15 382 395
1911 11 376 377
1912 11 376 383
1913 9 381 382
1914 11 381 383
1915 16 1718 1719
1916 7 1718 1720
1917 3 2618 2619
1918 13 2618 2632
1919 8 904 905
1920 11 902 903
1921 12 902 917
1922 11 2623 2624
1923 12 2623 2638
1924 16 2616 2617
1925 7 2616 2618
1926 8 903 904
1927 11 903 912
1928 11 2614 2615
1929 12 2614 2631
1930 5 2612 2613
1931 11 2612 2614
1932 4 2615 2616
1933 11 2615 2629
1934 11 2611 2612
1935 12 2611 2630
1936 7 2613 2644
1937 7 2613 2645
1938 4 2644 2663
1939 16 2643 2644
1940 11 2393 2394
1941 12 2393 2406
1942 11 2392 2393
1943 12 2392 2405
1944 16 2395 2396
1945 7 2395 2409
1946 4 2394 2395
1947 11 2394 2399
1948 11 2662 2663
1949 12 2662 2669
1950 16 2645 2646
1951 4 2645 2647
1952 11 2647 2648
1953 11 2647 2663
1954 8 2650 2651
1955 11 2650 2662
1956 12 2629 2642
1957 11 2391 2392
1958 11 2391 2400
1959 11 2621 2622
1960 11 2621 2628
1961 11 2622 2623
1962 12 2622 2637
1963 11 741 742
1964 12 741 757
1965 11 2610 2611
1966 11 2610 2629
1967 11 2648 2649
1968 12 2648 2664
1969 11 2649 2650
1970 12 2649 2665
1971 8 2651 2652
1972 11 740 741
1973 11 740 756
1974 12 675 683
1975 11 456 457
1976 11 456 462
1977 16 686 687
1978 11 1118 1119
1979 11 1118 1124
1980 8 1117 1118
1981 8 668 669
1982 11 669 670
1983 11 669 675
1984 11 674 675
1985 12 674 682
1986 11 670 671
1987 12 670 680
1988 5 672 673
1989 11 672 674
1990 11 671 672
1991 12 671 681
1992 8 455 456
1993 8 454 455
1994 11 454 463
1995 11 453 454
1996 12 453 468
1997 7 673 687
1998 7 673 688
1999 4 687 706
2000 11 1123 1124
2001 12 1123 1131
2002 12 1124 1132
2003 11 452 453
2004 12 452 467
2005 11 451 452
2006 11 451 464
2007 8 1116 1117
2008 11 1116 1125
2009 11 1115 1116
2010 12 1115 1128
2011 6 450 451
2012 14 450 465
2013 14 450 466
2014 11 463 464
2015 12 463 473
2016 12 464 474
2017 16 688 689
2018 4 688 690
2019 11 690 691
2020 11 690 706
2021 11 1114 1115
2022 12 1114 1127
2023 11 691 692
2024 12 691 707
2025 11 1125 1126
2026 12 1125 1133
2027 11 1113 1114
2028 11 1113 1126
2029 4 399 418
2030 8 144 145
2031 11 144 156
2032 11 146 147
2033 11 146 155
2034 11 427 428
2035 12 427 440
2036 11 148 149
2037 12 148 161
2038 15 69 83
2039 12 416 423
2040 16 413 414
2041 4 413 415
2042 7 413 425
2043 11 415 416
2044 8 145 146
2045 11 147 148
2046 12 147 160
2047 11 407 408
2048 11 407 416
2049 11 408 409
2050 12 408 421
2051 11 417 418
2052 12 417 424
2053 8 405 406
2054 11 405 417
2055 8 406 407
2056 4 410 411
2057 11 410 415
2058 11 409 410
2059 12 409 422
2060 16 398 399
2061 5 425 426
2062 16 411 412
2063 7 411 425
2064 9 68 69
2065 11 68 70
2066 11 426 427
2067 11 426 439
2068 11 377 378
2069 12 377 392
2070 9 379 380
2071 11 379 381
2072 8 2390 2391
2073 15 380 394
2074 16 749 750
2075 7 749 763
2076 11 747 748
2077 12 747 760
2078 11 753 754
2079 4 748 749
2080 11 748 753
2081 11 746 747
2082 12 746 759
2083 12 754 761
2084 11 745 746
2085 11 745 754
2086 11 2493 2494
2087 12 2493 2506
2088 8 744 745
2089 11 2492 2493
2090 12 2492 2505
2091 11 742 743
2092 12 742 758
2093 8 2490 2491
2094 11 378 379
2095 12 378 393
2096 8 2489 2490
2097 11 2489 2501
2098 11 2491 2492
2099 11 2491 2500
2100 11 2501 2502
2101 12 2501 2508
2102 8 743 744
2103 11 743 755
2104 12 2500 2507
2105 4 2494 2495
2106 11 2494 2499
2107 11 2499 2500
2108 11 2092 2093
2109 11 2092 2101
2110 8 718 719
2111 8 1616 1617
2112 11 1301 1302
2113 12 1301 1317
2114 11 1302 1303
2115 12 1302 1318
2116 8 717 718
2117 11 717 726
2118 11 1613 1614
2119 12 1613 1626
2120 11 1614 1615
2121 12 1614 1627
2122 11 724 725
2123 12 724 732
2124 11 719 720
2125 11 719 725
2126 5 722 723
2127 11 722 724
2128 11 720 721
2129 12 720 730
2130 11 721 722
2131 12 721 731
2132 7 723 737
2133 7 723 738
2134 4 737 756
2135 16 738 739
2136 4 738 740
2137 11 2652 2653
2138 11 2652 2661
2139 12 2661 2668
2140 16 2658 2659
2141 4 2658 2660
2142 7 2658 2670
2143 11 2660 2661
2144 5 2670 2671
2145 11 726 727
2146 12 726 734
2147 4 2655 2656
2148 11 2655 2660
2149 16 2656 2657
2150 7 2656 2670
2151 16 736 737
2152 12 1623 1631
2153 11 2093 2094
2154 12 2093 2106
2155 11 2653 2654
2156 12 2653 2666
2157 11 716 717
2158 12 716 729
2159 16 699 700
2160 7 699 713
2161 11 715 716
2162 12 715 728
2163 11 714 715
2164 11 714 727
2165 11 1305 1306
2166 11 1305 1314
2167 4 1308 1309
2168 11 1308 1313
2169 8 1304 1305
2170 9 1864 1865
2171 11 1864 1866
2172 11 697 698
2173 12 697 710
2174 11 2654 2655
2175 12 2654 2667
2176 4 698 699
2177 11 698 703
2178 15 1867 1880
2179 11 1306 1307
2180 12 1306 1319
2181 9 1866 1867
2182 11 1866 1868
2183 11 705 706
2184 12 705 712
2185 12 704 711
2186 12 727 735
2187 5 713 714
2188 16 701 702
2189 4 701 703
2190 7 701 713
2191 12 1868 1881
2192 11 703 704
2193 11 695 696
2194 11 695 704
2195 11 1307 1308
2196 12 1307 1320
2197 11 696 697
2198 12 696 709
2199 11 1861 1862
2200 11 1861 1868
2201 8 430 431
2202 7 1853 1884
2203 7 1853 1885
2204 11 428 429
2205 12 428 441
2206 11 143 144
2207 12 143 159
2208 11 1863 1864
2209 12 1863 1878
2210 8 693 694
2211 11 693 705
2212 8 694 695
2213 2 1860 1861
2214 10 1860 1875
2215 10 1860 1876
2216 1 1859 1860
2217 10 1859 1873
2218 10 1859 1874
2219 8 429 430
2220 11 429 438
2221 11 142 143
2222 12 142 158
2223 4 238 257
2224 11 438 439
2225 12 438 448
2226 11 1854 1855
2227 12 1854 1871
2228 12 439 449
2229 3 1858 1859
2230 13 1858 1872
2231 11 1862 1863
2232 12 1862 1877
2233 16 1856 1857
2234 7 1856 1858
2235 11 243 244
2236 12 243 259
2237 8 244 245
2238 11 244 256
2239 12 255 262
2240 11 256 257
2241 12 256 263
2242 11 246 247
2243 11 246 255
2244 8 245 246
2245 11 247 248
2246 12 247 260
2247 11 248 249
2248 12 248 261
2249 11 692 693
2250 12 692 708
2251 11 254 255
2252 4 249 250
2253 11 249 254
2254 16 1885 1886
2255 4 1885 1887
2256 12 2101 2108
2257 8 268 269
2258 11 268 277
2259 11 2094 2095
2260 12 2094 2107
2261 11 1893 1894
2262 12 1893 1906
2263 8 1891 1892
2264 11 2113 2114
2265 12 2113 2126
2266 8 1890 1891
2267 11 1890 1902
2268 11 2488 2489
2269 12 2488 2504
2270 11 277 278
2271 12 277 285
2272 11 267 268
2273 12 267 280
2274 11 2111 2112
2275 11 2111 2124
2276 11 2100 2101
2277 16 2098 2099
2278 4 2098 2100
2279 7 2098 2110
2280 11 2487 2488
2281 12 2487 2503
2282 11 1887 1888
2283 11 1887 1903
2284 11 1889 1890
2285 12 1889 1905
2286 11 1888 1889
2287 12 1888 1904
2288 11 755 756
2289 12 755 762
2290 16 252 253
2291 4 252 254
2292 7 252 264
2293 16 250 251
2294 7 250 264
2295 5 264 265
2296 5 2110 2111
2297 4 2095 2096
2298 11 2095 2100
2299 16 2096 2097
2300 7 2096 2110
2301 12 278 286
2302 11 265 266
2303 11 265 278
2304 11 266 267
2305 12 266 279
2306 11 2112 2113
2307 12 2112 2125
2308 11 2486 2487
2309 11 2486 2502
2310 16 2484 2485
2311 4 2484 2486
2312 7 2469 2483
2313 7 2469 2484
2314 16 1486 1487
2315 4 1486 1488
2316 11 1489 1490
2317 12 1489 1505
2318 6 1348 1349
2319 14 1348 1363
2320 14 1348 1364
2321 11 1472 1473
2322 12 1472 1480
2323 11 1488 1489
2324 11 1488 1504
2325 11 1355 1356
2326 12 1355 1367
2327 11 1354 1355
2328 11 1354 1360
2329 12 1360 1370
2330 8 1353 1354
2331 7 1471 1485
2332 7 1471 1486
2333 5 1470 1471
2334 11 1470 1472
2335 8 1352 1353
2336 11 1352 1361
2337 11 1361 1362
2338 12 1361 1371
2339 11 1351 1352
2340 12 1351 1366
2341 12 1362 1372
2342 11 1349 1350
2343 11 1349 1362
2344 11 1350 1351
2345 12 1350 1365
2346 11 1469 1470
2347 12 1469 1479
2348 11 1689 1690
2349 12 1689 1705
2350 4 1485 1504
2351 11 1503 1504
2352 12 1503 1510
2353 16 1484 1485
2354 11 1690 1691
2355 12 1690 1706
2356 16 1584 1585
2357 11 1490 1491
2358 12 1490 1506
2359 8 1491 1492
2360 11 1491 1503
2361 16 1599 1600
2362 4 1599 1601
2363 7 1599 1611
2364 4 1585 1604
2365 11 2443 2444
2366 12 2443 2456
2367 11 2681 2682
2368 12 2681 2691
2369 16 2445 2446
2370 7 2445 2459
2371 4 2444 2445
2372 11 2444 2449
2373 16 1449 1450
2374 4 1449 1451
2375 7 1449 1461
2376 16 1649 1650
2377 4 1649 1651
2378 7 1649 1661
2379 11 2442 2443
2380 12 2442 2455
2381 11 1468 1469
2382 12 1468 1478
2383 5 1620 1621
2384 11 1620 1622
2385 12 1473 1481
2386 11 1065 1066
2387 12 1065 1078
2388 11 1467 1468
2389 11 1467 1473
2390 16 1634 1635
2391 8 1466 1467
2392 5 1461 1462
2393 11 1462 1463
2394 11 1462 1475
2395 11 1463 1464
2396 12 1463 1476
2397 12 1475 1483
2398 11 1464 1465
2399 12 1464 1477
2400 11 1474 1475
2401 12 1474 1482
2402 8 1465 1466
2403 11 1465 1474
2404 16 1447 1448
2405 7 1447 1461
2406 4 1635 1654
2407 14 2680 2689
2408 14 2680 2690
2409 4 1646 1647
2410 11 1646 1651
2411 8 1066 1067
2412 11 1066 1075
2413 8 1067 1068
2414 12 1074 1082
2415 11 1651 1652
2416 11 1653 1654
2417 12 1653 1660
2418 11 1068 1069
2419 11 1068 1074
2420 12 1652 1659
2421 11 1643 1644
2422 11 1643 1652
2423 8 1642 1643
2424 6 2679 2680
2425 11 2679 2681
2426 8 1641 1642
2427 11 1641 1653
2428 4 1446 1447
2429 11 1446 1451
2430 11 1069 1070
2431 12 1069 1079
2432 11 1329 1330
2433 11 1329 1335
2434 11 1330 1331
2435 12 1330 1340
2436 12 1335 1345
2437 11 1331 1332
2438 12 1331 1341
2439 11 1334 1335
2440 12 1334 1344
2441 6 1332 1333
2442 11 1332 1334
2443 14 1333 1342
2444 14 1333 1343
2445 11 1755 1756
2446 12 1755 1768
2447 11 1756 1757
2448 12 1756 1769
2449 11 1754 1755
2450 11 1754 1763
2451 4 1757 1758
2452 11 1757 1762
2453 11 1645 1646
2454 12 1645 1658
2455 11 1644 1645
2456 12 1644 1657
2457 11 1070 1071
2458 12 1070 1080
2459 12 1763 1770
2460 16 1758 1759
2461 7 1758 1772
2462 11 1762 1763
2463 4 1884 1903
2464 16 1883 1884
2465 11 1902 1903
2466 12 1902 1909
2467 11 1601 1602
2468 4 1596 1597
2469 11 1596 1601
2470 11 1603 1604
2471 12 1603 1610
2472 8 1492 1493
2473 16 1497 1498
2474 7 1497 1511
2475 16 1499 1500
2476 4 1499 1501
2477 7 1499 1511
2478 5 1772 1773
2479 11 1595 1596
2480 12 1595 1608
2481 16 1760 1761
2482 4 1760 1762
2483 7 1760 1772
2484 11 1594 1595
2485 12 1594 1607
2486 11 1593 1594
2487 11 1593 1602
2488 8 1592 1593
2489 12 1602 1609
2490 4 1496 1497
2491 11 1496 1501
2492 11 1495 1496
2493 12 1495 1508
2494 11 1494 1495
2495 12 1494 1507
2496 11 1501 1502
2497 11 1493 1494
2498 11 1493 1502
2499 12 1502 1509
2500 11 1774 1775
2501 12 1774 1787
2502 8 1591 1592
2503 11 1591 1603
2504 16 1745 1746
2505 12 1003 1010
2506 4 1247 1248
2507 11 1247 1252
2508 11 1002 1003
2509 4 997 998
2510 11 997 1002
2511 11 1244 1245
2512 11 1244 1253
2513 11 1246 1247
2514 12 1246 1259
2515 11 1245 1246
2516 12 1245 1258
2517 8 1016 1017
2518 11 1016 1025
2519 11 1693 1694
2520 11 1693 1702
2521 12 1702 1709
2522 11 1694 1695
2523 12 1694 1707
2524 11 1695 1696
2525 12 1695 1708
2526 4 1696 1697
2527 11 1696 1701
2528 11 1015 1016
2529 12 1015 1028
2530 11 1014 1015
2531 12 1014 1027
2532 16 998 999
2533 7 998 1012
2534 5 1012 1013
2535 16 1000 1001
2536 4 1000 1002
2537 7 1000 1012
2538 11 1013 1014
2539 11 1013 1026
2540 11 1025 1026
2541 12 1025 1033
2542 12 1026 1034
2543 11 1701 1702
2544 16 1697 1698
2545 7 1697 1711
2546 11 1241 1242
2547 12 1241 1257
2548 11 1240 1241
2549 12 1240 1256
2550 16 1237 1238
2551 4 1237 1239
2552 7 955 986
2553 7 955 987
2554 8 1243 1244
2555 8 1242 1243
2556 11 1242 1254
2557 4 986 1005
2558 3 960 961
2559 13 960 974
2560 11 956 957
2561 12 956 973
2562 16 958 959
2563 7 958 960
2564 5 954 955
2565 11 954 956
2566 11 1220 1221
2567 12 1220 1230
2568 4 957 958
2569 11 957 971
2570 11 1239 1240
2571 11 1239 1255
2572 5 1221 1222
2573 11 1221 1223
2574 11 1254 1255
2575 12 1254 1261
2576 4 1236 1255
2577 7 1222 1236
2578 7 1222 1237
2579 16 985 986
2580 16 1235 1236
2581 11 935 936
2582 12 935 948
2583 4 936 937
2584 11 936 941
2585 16 937 938
2586 7 937 951
2587 11 941 942
2588 12 971 984
2589 11 953 954
2590 12 953 972
2591 11 952 953
2592 11 952 971
2593 5 951 952
2594 16 939 940
2595 4 939 941
2596 7 939 951
2597 16 1100 1101
2598 4 1100 1102
2599 7 1100 1112
2600 8 1753 1754
2601 11 1073 1074
2602 12 1073 1081
2603 5 1071 1072
2604 11 1071 1073
2605 7 1072 1086
2606 7 1072 1087
2607 16 1087 1088
2608 4 1087 1089
2609 16 1085 1086
2610 4 1086 1105
2611 11 1104 1105
2612 12 1104 1111
2613 11 1089 1090
2614 11 1089 1105
2615 8 1093 1094
2616 8 1092 1093
2617 11 1092 1104
2618 11 1090 1091
2619 12 1090 1106
2620 11 1091 1092
2621 12 1091 1107
2622 8 1752 1753
2623 11 1752 1764
2624 11 1751 1752
2625 12 1751 1767
2626 12 1103 1110
2627 11 1094 1095
2628 11 1094 1103
2629 11 1102 1103
2630 5 1711 1712
2631 16 1699 1700
2632 4 1699 1701
2633 7 1699 1711
2634 11 1764 1765
2635 12 1764 1771
2636 4 1746 1765
2637 11 1750 1751
2638 12 1750 1766
2639 11 1202 1203
2640 11 1716 1717
2641 12 1716 1733
2642 4 1717 1718
2643 11 1717 1731
2644 7 1172 1186
2645 7 1172 1187
2646 16 1187 1188
2647 4 1187 1189
2648 11 1749 1750
2649 11 1749 1765
2650 11 1712 1713
2651 11 1712 1731
2652 12 1731 1744
2653 16 1747 1748
2654 4 1747 1749
2655 11 1713 1714
2656 12 1713 1732
2657 5 1714 1715
2658 11 1714 1716
2659 7 1715 1746
2660 7 1715 1747
2661 11 1194 1195
2662 11 1194 1203
2663 8 1193 1194
2664 12 1203 1210
2665 11 1191 1192
2666 12 1191 1207
2667 8 1192 1193
2668 11 1192 1204
2669 16 1185 1186
2670 11 1204 1205
2671 12 1204 1211
2672 4 1186 1205
2673 11 1189 1190
2674 11 1189 1205
2675 11 1190 1191
2676 12 1190 1206
2677 2 513 514
2678 10 513 528
2679 10 513 529
2680 16 1200 1201
2681 4 1200 1202
2682 7 1200 1212
2683 11 1225 1226
2684 12 1225 1233
2685 12 1226 1234
2686 16 2584 2585
2687 4 2584 2586
2688 11 2601 2602
2689 12 2601 2608
2690 11 2399 2400
2691 5 2409 2410
2692 11 514 515
2693 11 514 521
2694 11 2586 2587
2695 11 2586 2602
2696 16 2595 2596
2697 7 2595 2609
2698 4 2594 2595
2699 11 2594 2599
2700 5 2609 2610
2701 11 2599 2600
2702 16 2597 2598
2703 4 2597 2599
2704 7 2597 2609
2705 11 2593 2594
2706 12 2593 2606
2707 12 2600 2607
2708 12 521 534
2709 11 2592 2593
2710 12 2592 2605
2711 9 519 520
2712 11 519 521
2713 12 2400 2407
2714 15 520 533
2715 16 2397 2398
2716 4 2397 2399
2717 7 2397 2409
2718 11 2587 2588
2719 12 2587 2603
2720 11 2591 2592
2721 11 2591 2600
2722 11 2588 2589
2723 12 2588 2604
2724 8 2589 2590
2725 11 2589 2601
2726 11 2410 2411
2727 11 2410 2423
2728 8 2590 2591
2729 12 2423 2431
2730 11 2411 2412
2731 12 2411 2424
2732 11 2422 2423
2733 12 2422 2430
2734 12 1126 1134
2735 11 1223 1224
2736 12 1223 1231
2737 12 1224 1232
2738 8 2413 2414
2739 11 2413 2422
2740 11 2412 2413
2741 12 2412 2425
2742 8 2414 2415
2743 11 2416 2417
2744 12 2416 2426
2745 11 2415 2416
2746 11 2415 2421
2747 11 2417 2418
2748 12 2417 2427
2749 5 1112 1113
2750 15 71 84
2751 11 67 68
2752 12 67 82
2753 9 70 71
2754 11 70 72
2755 4 1097 1098
2756 11 1097 1102
2757 11 1095 1096
2758 12 1095 1108
2759 11 1096 1097
2760 12 1096 1109
2761 11 2517 2518
2762 12 2517 2527
2763 8 2514 2515
2764 11 2515 2516
2765 11 2515 2521
2766 16 1098 1099
2767 7 1098 1112
2768 12 72 85
2769 11 65 66
2770 11 65 72
2771 4 59 60
2772 11 59 73
2773 11 58 59
2774 12 58 75
2775 11 66 67
2776 12 66 81
2777 16 60 61
2778 7 60 62
2779 2 64 65
2780 10 64 79
2781 10 64 80
2782 1 63 64
2783 10 63 77
2784 10 63 78
2785 3 62 63
2786 13 62 76
2787 11 2516 2517
2788 12 2516 2526
2789 11 2520 2521
2790 12 2520 2528
2791 11 2365 2366
2792 11 2365 2371
2793 11 2522 2523
2794 12 2522 2530
2795 8 2513 2514
2796 11 2513 2522
2797 12 2521 2529
2798 11 515 516
2799 12 515 530
2800 16 2495 2496
2801 7 2495 2509
2802 15 518 532
2803 9 517 518
2804 11 517 519
2805 12 2523 2531
2806 11 516 517
2807 12 516 531
2808 11 2388 2389
2809 12 2388 2404
2810 8 2389 2390
2811 11 2389 2401
2812 11 2401 2402
2813 12 2401 2408
2814 11 2370 2371
2815 12 2370 2378
2816 12 2371 2379
2817 11 2366 2367
2818 12 2366 2376
2819 11 2512 2513
2820 12 2512 2525
2821 11 2387 2388
2822 12 2387 2403
2823 11 2386 2387
2824 11 2386 2402
2825 16 2384 2385
2826 4 2384 2386
2827 5 2509 2510
2828 11 2510 2511
2829 11 2510 2523
2830 11 2511 2512
2831 12 2511 2524
2832 5 2368 2369
2833 11 2368 2370
2834 11 2367 2368
2835 12 2367 2377
2836 16 2497 2498
2837 4 2497 2499
2838 7 2497 2509
2839 7 2369 2383
2840 7 2369 2384
2841 4 2383 2402
2842 16 2382 2383
2843 12 2682 2692
2844 7 1571 1585
2845 7 1571 1586
2846 11 2671 2672
2847 11 2671 2684
2848 11 2672 2673
2849 12 2672 2685
2850 11 2467 2468
2851 12 2467 2477
2852 5 2255 2256
2853 11 2255 2257
2854 16 2273 2274
2855 4 2273 2275
2856 11 2276 2277
2857 12 2276 2292
2858 7 2256 2272
2859 7 2256 2273
2860 11 2275 2276
2861 11 2275 2291
2862 4 2272 2291
2863 11 2290 2291
2864 12 2290 2297
2865 16 2271 2272
2866 5 2459 2460
2867 11 2460 2461
2868 11 2460 2473
2869 12 2473 2481
2870 11 2461 2462
2871 12 2461 2474
2872 11 2462 2463
2873 12 2462 2475
2874 16 2447 2448
2875 4 2447 2449
2876 7 2447 2459
2877 11 2673 2674
2878 12 2673 2686
2879 11 2472 2473
2880 12 2472 2480
2881 8 2463 2464
2882 11 2463 2472
2883 11 2466 2467
2884 12 2466 2476
2885 8 2464 2465
2886 11 2449 2450
2887 11 2277 2278
2888 12 2277 2293
2889 8 2278 2279
2890 11 2278 2290
2891 11 2465 2466
2892 11 2465 2471
2893 8 2674 2675
2894 11 2674 2683
2895 8 2675 2676
2896 8 2279 2280
2897 12 2289 2296
2898 11 2676 2677
2899 11 2676 2682
2900 11 2280 2281
2901 11 2280 2289
2902 11 2683 2684
2903 12 2683 2693
2904 12 2684 2694
2905 12 2450 2457
2906 11 2436 2437
2907 11 2436 2452
2908 7 1621 1635
2909 7 1621 1636
2910 12 2421 2429
2911 11 2281 2282
2912 12 2281 2294
2913 16 2434 2435
2914 4 2434 2436
2915 11 1622 1623
2916 12 1622 1630
2917 5 2418 2419
2918 11 2418 2420
2919 11 1638 1639
2920 11 1638 1654
2921 11 1640 1641
2922 12 1640 1656
2923 11 2677 2678
2924 12 2677 2687
2925 11 2678 2679
2926 12 2678 2688
2927 16 1636 1637
2928 4 1636 1638
2929 11 1639 1640
2930 12 1639 1655
2931 11 2420 2421
2932 12 2420 2428
2933 11 2451 2452
2934 12 2451 2458
2935 7 2419 2433
2936 7 2419 2434
2937 4 2433 2452
2938 16 2432 2433
2939 7 57 88
2940 7 57 89
2941 16 89 90
2942 4 89 91
2943 11 91 92
2944 11 91 107
2945 11 92 93
2946 12 92 108
2947 11 2247 2248
2948 11 2247 2260
2949 11 2254 2255
2950 12 2254 2266
2951 11 2248 2249
2952 12 2248 2263
2953 11 2249 2250
2954 12 2249 2264
2955 11 2253 2254
2956 12 2253 2265
2957 11 2257 2258
2958 12 2257 2267
2959 4 2483 2502
2960 16 1586 1587
2961 4 1586 1588
2962 16 2482 2483
2963 11 2259 2260
2964 12 2259 2269
2965 8 2250 2251
2966 11 2250 2259
2967 11 1588 1589
2968 11 1588 1604
2969 11 93 94
2970 12 93 109
2971 5 2468 2469
2972 11 2468 2470
2973 11 106 107
2974 12 106 113
2975 8 95 96
2976 8 94 95
2977 11 94 106
2978 11 2252 2253
2979 11 2252 2258
2980 8 2251 2252
2981 12 2258 2268
2982 11 2470 2471
2983 12 2470 2478
2984 12 2471 2479
2985 11 1590 1591
2986 12 1590 1606
2987 11 1589 1590
2988 12 1589 1605

Angles

1 20 1377 1393 1392
2 18 1374 1393 1392
3 18 1374 1393 1377
4 20 1378 1377 1393
5 18 1375 1377 1378
6 18 1375 1377 1393
7 25 1376 1375 1377
8 28 1358 1375 1376
9 22 1358 1375 1377
10 20 1377 1378 1379
11 9 1379 1378 1394
12 9 1377 1378 1394
13 20 1378 1379 1380
14 9 1380 1379 1395
15 9 1378 1379 1395
16 20 1562 1563 1564
17 9 1564 1563 1576
18 9 1562 1563 1576
19 25 1373 1374 1393
20 28 1358 1374 1373
21 22 1358 1374 1393
22 16 1374 1358 1375
23 17 1357 1358 1374
24 17 1357 1358 1375
25 16 1685 1671 1686
26 17 1670 1671 1685
27 17 1670 1671 1686
28 25 1687 1686 1688
29 28 1671 1686 1687
30 22 1671 1686 1688
31 23 1358 1357 1359
32 23 1356 1357 1358
33 20 1356 1357 1359
34 27 1381 1380 1392
35 27 1379 1380 1381
36 20 1379 1380 1392
37 20 1689 1688 1704
38 18 1686 1688 1689
39 18 1686 1688 1704
40 20 1380 1392 1393
41 9 1393 1392 1399
42 9 1380 1392 1399
43 25 1684 1685 1704
44 28 1671 1685 1684
45 22 1671 1685 1704
46 20 1688 1704 1703
47 18 1685 1704 1703
48 18 1685 1704 1688
49 20 1382 1391 1390
50 9 1390 1391 1398
51 9 1382 1391 1398
52 20 1357 1359 1360
53 9 1360 1359 1369
54 9 1357 1359 1369
55 3 1791 1782 1792
56 10 1781 1782 1791
57 10 1781 1782 1792
58 20 1563 1562 1575
59 23 1561 1562 1563
60 23 1561 1562 1575
61 20 1355 1356 1357
62 9 1357 1356 1368
63 9 1355 1356 1368
64 19 1380 1381 1382
65 23 1671 1670 1672
66 23 1669 1670 1671
67 20 1669 1670 1672
68 20 1670 1672 1673
69 9 1673 1672 1680
70 9 1670 1672 1680
71 20 1563 1564 1565
72 9 1565 1564 1577
73 9 1563 1564 1577
74 20 1668 1669 1670
75 9 1670 1669 1679
76 9 1668 1669 1679
77 20 1667 1673 1672
78 9 1672 1673 1681
79 9 1667 1673 1681
80 20 1668 1667 1673
81 27 1666 1667 1668
82 27 1666 1667 1673
83 20 1667 1668 1669
84 9 1669 1668 1678
85 9 1667 1668 1678
86 20 1665 1674 1675
87 9 1675 1674 1682
88 9 1665 1674 1682
89 27 1666 1665 1674
90 27 1664 1665 1666
91 20 1664 1665 1674
92 19 1665 1666 1667
93 20 1663 1662 1675
94 23 1661 1662 1663
95 23 1661 1662 1675
96 20 1662 1675 1674
97 9 1674 1675 1683
98 9 1662 1675 1683
99 17 1649 1661 1662
100 17 1647 1661 1662
101 16 1647 1661 1649
102 25 1434 1435 1454
103 28 1404 1435 1434
104 22 1404 1435 1454
105 20 1438 1454 1453
106 18 1435 1454 1453
107 18 1435 1454 1438
108 20 1438 1439 1440
109 9 1440 1439 1455
110 9 1438 1439 1455
111 20 1439 1438 1454
112 18 1436 1438 1439
113 18 1436 1438 1454
114 20 1441 1453 1454
115 9 1454 1453 1460
116 9 1441 1453 1460
117 20 1443 1452 1451
118 9 1451 1452 1459
119 9 1443 1452 1459
120 18 1449 1451 1452
121 18 1446 1451 1449
122 20 1446 1451 1452
123 20 1439 1440 1441
124 9 1441 1440 1456
125 9 1439 1440 1456
126 20 2016 2017 2018
127 9 2018 2017 2027
128 9 2016 2017 2027
129 20 2017 2018 2019
130 9 2019 2018 2028
131 9 2017 2018 2028
132 23 2020 2019 2021
133 23 2018 2019 2020
134 20 2018 2019 2021
135 28 1648 1647 1661
136 25 1646 1647 1648
137 22 1646 1647 1661
138 20 1663 1664 1665
139 9 1665 1664 1677
140 9 1663 1664 1677
141 20 1662 1663 1664
142 9 1664 1663 1676
143 9 1662 1663 1676
144 27 1442 1441 1453
145 27 1440 1441 1442
146 20 1440 1441 1453
147 25 1437 1436 1438
148 28 1404 1436 1437
149 22 1404 1436 1438
150 20 1444 1443 1452
151 27 1442 1443 1444
152 27 1442 1443 1452
153 19 1441 1442 1443
154 20 1443 1444 1445
155 9 1445 1444 1457
156 9 1443 1444 1457
157 28 2208 2207 2221
158 25 2206 2207 2208
159 22 2206 2207 2221
160 16 2034 2020 2035
161 17 2019 2020 2034
162 17 2019 2020 2035
163 17 2209 2221 2222
164 17 2207 2221 2222
165 16 2207 2221 2209
166 20 2037 2053 2052
167 18 2034 2053 2052
168 18 2034 2053 2037
169 20 2040 2052 2053
170 9 2053 2052 2059
171 9 2040 2052 2059
172 18 2207 2206 2211
173 18 2205 2206 2207
174 20 2205 2206 2211
175 25 2033 2034 2053
176 28 2020 2034 2033
177 22 2020 2034 2053
178 27 2041 2040 2052
179 27 2039 2040 2041
180 20 2039 2040 2052
181 20 1938 1939 1940
182 9 1940 1939 1955
183 9 1938 1939 1955
184 20 2204 2205 2206
185 9 2206 2205 2218
186 9 2204 2205 2218
187 19 2040 2041 2042
188 20 2043 2042 2051
189 27 2041 2042 2043
190 27 2041 2042 2051
191 20 2042 2051 2050
192 9 2050 2051 2058
193 9 2042 2051 2058
194 20 2042 2043 2044
195 9 2044 2043 2056
196 9 2042 2043 2056
197 18 2048 2050 2051
198 18 2045 2050 2048
199 20 2045 2050 2051
200 20 2043 2044 2045
201 9 2045 2044 2057
202 9 2043 2044 2057
203 20 2038 2037 2053
204 18 2035 2037 2038
205 18 2035 2037 2053
206 20 2038 2039 2040
207 9 2040 2039 2055
208 9 2038 2039 2055
209 20 1444 1445 1446
210 9 1446 1445 1458
211 9 1444 1445 1458
212 20 2203 2204 2205
213 9 2205 2204 2217
214 9 2203 2204 2217
215 18 2046 2045 2050
216 18 2044 2045 2046
217 20 2044 2045 2050
218 25 2036 2035 2037
219 28 2020 2035 2036
220 22 2020 2035 2037
221 20 2037 2038 2039
222 9 2039 2038 2054
223 9 2037 2038 2054
224 20 1779 1780 1781
225 9 1781 1780 1790
226 9 1779 1780 1790
227 24 1782 1781 1783
228 24 1780 1781 1782
229 20 1780 1781 1783
230 22 2050 2048 2060
231 25 2049 2048 2050
232 28 2049 2048 2060
233 20 296 297 298
234 9 298 297 310
235 9 296 297 310
236 20 297 296 305
237 27 295 296 297
238 27 295 296 305
239 20 1778 1779 1780
240 9 1780 1779 1789
241 9 1778 1779 1789
242 28 2047 2046 2060
243 25 2045 2046 2047
244 22 2045 2046 2060
245 17 2048 2060 2061
246 17 2046 2060 2061
247 16 2046 2060 2048
248 18 300 299 304
249 18 298 299 300
250 20 298 299 304
251 28 301 300 314
252 25 299 300 301
253 22 299 300 314
254 20 1773 1786 1785
255 9 1785 1786 1796
256 9 1773 1786 1796
257 20 1776 1785 1786
258 9 1786 1785 1795
259 9 1776 1785 1795
260 20 297 298 299
261 9 299 298 311
262 9 297 298 311
263 20 2062 2061 2074
264 23 2060 2061 2062
265 23 2060 2061 2074
266 20 2061 2062 2063
267 9 2063 2062 2075
268 9 2061 2062 2075
269 20 2061 2074 2073
270 9 2073 2074 2082
271 9 2061 2074 2082
272 20 2062 2063 2064
273 9 2064 2063 2076
274 9 2062 2063 2076
275 17 302 314 315
276 17 300 314 315
277 16 300 314 302
278 20 315 328 327
279 9 327 328 336
280 9 315 328 336
281 27 1777 1776 1785
282 27 1775 1776 1777
283 20 1775 1776 1785
284 20 1512 1525 1524
285 9 1524 1525 1533
286 9 1512 1525 1533
287 27 2065 2064 2073
288 27 2063 2064 2065
289 20 2063 2064 2073
290 17 1499 1511 1512
291 17 1497 1511 1512
292 16 1497 1511 1499
293 20 1774 1773 1786
294 23 1772 1773 1774
295 23 1772 1773 1786
296 20 1774 1775 1776
297 9 1776 1775 1788
298 9 1774 1775 1788
299 20 1691 1703 1704
300 9 1704 1703 1710
301 9 1691 1703 1710
302 27 1692 1691 1703
303 27 1690 1691 1692
304 20 1690 1691 1703
305 26 2176 2175 2177
306 26 2174 2175 2176
307 20 2174 2175 2177
308 20 2173 2172 2179
309 15 2171 2172 2173
310 15 2171 2172 2179
311 20 992 1004 1005
312 9 1005 1004 1011
313 9 992 1004 1011
314 20 2173 2174 2175
315 9 2175 2174 2189
316 9 2173 2174 2189
317 20 2172 2173 2174
318 9 2174 2173 2188
319 9 2172 2173 2188
320 13 2170 2171 2172
321 2 2186 2171 2187
322 7 2172 2171 2186
323 7 2172 2171 2187
324 5 2170 2171 2186
325 5 2170 2171 2187
326 27 993 992 1004
327 27 991 992 993
328 20 991 992 1004
329 20 994 995 996
330 9 996 995 1008
331 9 994 995 1008
332 20 995 994 1003
333 27 993 994 995
334 27 993 994 1003
335 19 992 993 994
336 20 990 991 992
337 9 992 991 1007
338 9 990 991 1007
339 11 2175 2176 2190
340 21 2169 2170 2171
341 1 2184 2170 2185
342 6 2171 2170 2184
343 6 2171 2170 2185
344 12 2169 2170 2184
345 12 2169 2170 2185
346 20 995 996 997
347 9 997 996 1009
348 9 995 996 1009
349 17 1200 1212 1213
350 17 1198 1212 1213
351 16 1198 1212 1200
352 20 1218 1219 1220
353 9 1220 1219 1229
354 9 1218 1219 1229
355 28 1199 1198 1212
356 25 1197 1198 1199
357 22 1197 1198 1212
358 20 641 642 643
359 9 643 642 658
360 9 641 642 658
361 20 640 641 642
362 9 642 641 657
363 9 640 641 657
364 26 2178 2177 2179
365 26 2175 2177 2178
366 20 2175 2177 2179
367 20 2172 2179 2177
368 9 2177 2179 2192
369 9 2172 2179 2192
370 20 1520 1522 1523
371 9 1523 1522 1530
372 9 1520 1522 1530
373 19 1691 1692 1693
374 20 989 1005 1004
375 18 986 1005 1004
376 18 986 1005 989
377 20 989 990 991
378 9 991 990 1006
379 9 989 990 1006
380 20 990 989 1005
381 18 987 989 990
382 18 987 989 1005
383 25 988 987 989
384 28 955 987 988
385 22 955 987 989
386 20 643 655 656
387 9 656 655 662
388 9 643 655 662
389 27 644 643 655
390 27 642 643 644
391 20 642 643 655
392 20 640 656 655
393 18 637 656 655
394 18 637 656 640
395 20 963 964 965
396 9 965 964 979
397 9 963 964 979
398 20 964 965 966
399 9 966 965 980
400 9 964 965 980
401 26 967 966 968
402 26 965 966 967
403 20 965 966 968
404 19 643 644 645
405 11 966 967 981
406 20 641 640 656
407 18 638 640 641
408 18 638 640 656
409 26 969 968 970
410 26 966 968 969
411 20 966 968 970
412 18 2209 2211 2212
413 18 2206 2211 2209
414 20 2206 2211 2212
415 27 1941 1940 1952
416 27 1939 1940 1941
417 20 1939 1940 1952
418 22 2211 2209 2221
419 25 2210 2209 2211
420 28 2210 2209 2221
421 20 964 963 970
422 15 962 963 964
423 15 962 963 970
424 20 963 970 968
425 9 968 970 983
426 9 963 970 983
427 11 968 969 982
428 21 960 961 962
429 1 975 961 976
430 6 962 961 975
431 6 962 961 976
432 12 960 961 975
433 12 960 961 976
434 13 961 962 963
435 2 977 962 978
436 7 963 962 977
437 7 963 962 978
438 5 961 962 977
439 5 961 962 978
440 20 2203 2212 2211
441 9 2211 2212 2219
442 9 2203 2212 2219
443 19 1940 1941 1942
444 20 2204 2203 2212
445 27 2202 2203 2204
446 27 2202 2203 2212
447 20 1943 1942 1951
448 27 1941 1942 1943
449 27 1941 1942 1951
450 20 1942 1943 1944
451 9 1944 1943 1956
452 9 1942 1943 1956
453 20 1943 1944 1945
454 9 1945 1944 1957
455 9 1943 1944 1957
456 19 2201 2202 2203
457 27 2202 2201 2213
458 27 2200 2201 2202
459 20 2200 2201 2213
460 20 2199 2200 2201
461 9 2201 2200 2216
462 9 2199 2200 2216
463 20 2201 2213 2214
464 9 2214 2213 2220
465 9 2201 2213 2220
466 20 2198 2199 2200
467 9 2200 2199 2215
468 9 2198 2199 2215
469 20 1515 1524 1525
470 9 1525 1524 1532
471 9 1515 1524 1532
472 20 1513 1512 1525
473 23 1511 1512 1513
474 23 1511 1512 1525
475 20 1517 1523 1522
476 9 1522 1523 1531
477 9 1517 1523 1531
478 20 1518 1517 1523
479 27 1516 1517 1518
480 27 1516 1517 1523
481 20 2198 2214 2213
482 18 2195 2214 2213
483 18 2195 2214 2198
484 25 2194 2195 2214
485 28 2164 2195 2194
486 22 2164 2195 2214
487 20 2199 2198 2214
488 18 2196 2198 2199
489 18 2196 2198 2214
490 25 2197 2196 2198
491 28 2164 2196 2197
492 22 2164 2196 2198
493 20 1512 1513 1514
494 9 1514 1513 1526
495 9 1512 1513 1526
496 20 1513 1514 1515
497 9 1515 1514 1527
498 9 1513 1514 1527
499 16 2195 2164 2196
500 17 2163 2164 2195
501 17 2163 2164 2196
502 23 2164 2163 2165
503 23 2162 2163 2164
504 20 2162 2163 2165
505 20 2163 2165 2166
506 9 2166 2165 2182
507 9 2163 2165 2182
508 27 1516 1515 1524
509 27 1514 1515 1516
510 20 1514 1515 1524
511 20 2161 2162 2163
512 9 2163 2162 2181
513 9 2161 2162 2181
514 14 2167 2169 2170
515 4 2170 2169 2183
516 8 2167 2169 2183
517 19 1515 1516 1517
518 18 1198 1197 1202
519 18 1196 1197 1198
520 20 1196 1197 1202
521 20 1195 1196 1197
522 9 1197 1196 1209
523 9 1195 1196 1209
524 18 2167 2166 2180
525 18 2165 2166 2167
526 20 2165 2166 2180
527 28 2168 2167 2169
528 25 2166 2167 2168
529 22 2166 2167 2169
530 20 1517 1518 1519
531 9 1519 1518 1528
532 9 1517 1518 1528
533 20 541 542 543
534 9 543 542 558
535 9 541 542 558
536 20 2161 2180 2166
537 9 2166 2180 2193
538 9 2161 2180 2193
539 19 543 544 545
540 20 1194 1195 1196
541 9 1196 1195 1208
542 9 1194 1195 1208
543 20 2162 2161 2180
544 23 2160 2161 2162
545 23 2160 2161 2180
546 20 1940 1952 1953
547 9 1953 1952 1959
548 9 1940 1952 1959
549 20 1219 1218 1224
550 27 1217 1218 1219
551 27 1217 1218 1224
552 20 1214 1213 1226
553 23 1212 1213 1214
554 23 1212 1213 1226
555 20 1213 1214 1215
556 9 1215 1214 1227
557 9 1213 1214 1227
558 20 1214 1215 1216
559 9 1216 1215 1228
560 9 1214 1215 1228
561 27 1217 1216 1225
562 27 1215 1216 1217
563 20 1215 1216 1225
564 19 1216 1217 1218
565 20 503 504 505
566 9 505 504 523
567 9 503 504 523
568 22 492 490 502
569 25 491 490 492
570 28 491 490 502
571 20 505 507 508
572 9 508 507 524
573 9 505 507 524
574 18 509 508 522
575 18 507 508 509
576 20 507 508 522
577 20 503 522 508
578 9 508 522 535
579 9 503 522 535
580 14 509 511 512
581 4 512 511 525
582 8 509 511 525
583 21 511 512 513
584 1 526 512 527
585 6 513 512 526
586 6 513 512 527
587 12 511 512 526
588 12 511 512 527
589 28 510 509 511
590 25 508 509 510
591 22 508 509 511
592 20 2566 2567 2568
593 9 2568 2567 2577
594 9 2566 2567 2577
595 20 504 503 522
596 23 502 503 504
597 23 502 503 522
598 23 506 505 507
599 23 504 505 506
600 20 504 505 507
601 16 2583 2569 2584
602 17 2568 2569 2583
603 17 2568 2569 2584
604 17 490 502 503
605 17 488 502 503
606 16 488 502 490
607 28 489 488 502
608 25 487 488 489
609 22 487 488 502
610 25 2582 2583 2602
611 28 2569 2583 2582
612 22 2569 2583 2602
613 18 490 492 493
614 18 487 492 490
615 20 487 492 493
616 20 2341 2350 2349
617 9 2349 2350 2357
618 9 2341 2350 2357
619 18 488 487 492
620 18 486 487 488
621 20 486 487 492
622 20 484 493 492
623 9 492 493 500
624 9 484 493 500
625 20 2336 2352 2351
626 18 2333 2352 2351
627 18 2333 2352 2336
628 20 485 486 487
629 9 487 486 499
630 9 485 486 499
631 25 2332 2333 2352
632 28 2302 2333 2332
633 22 2302 2333 2352
634 20 2339 2351 2352
635 9 2352 2351 2358
636 9 2339 2351 2358
637 25 636 637 656
638 28 623 637 636
639 22 623 637 656
640 25 639 638 640
641 28 623 638 639
642 22 623 638 640
643 16 637 623 638
644 17 622 623 637
645 17 622 623 638
646 23 623 622 624
647 23 621 622 623
648 20 621 622 624
649 20 622 624 625
650 9 625 624 632
651 9 622 624 632
652 20 620 621 622
653 9 622 621 631
654 9 620 621 631
655 20 619 620 621
656 9 621 620 630
657 9 619 620 630
658 20 620 619 625
659 27 618 619 620
660 27 618 619 625
661 20 619 625 624
662 9 624 625 633
663 9 619 625 633
664 19 617 618 619
665 27 618 617 626
666 27 616 617 618
667 20 616 617 626
668 20 485 484 493
669 27 483 484 485
670 27 483 484 493
671 20 617 626 627
672 9 627 626 634
673 9 617 626 634
674 20 484 485 486
675 9 486 485 498
676 9 484 485 498
677 20 173 175 176
678 9 176 175 183
679 9 173 175 183
680 25 187 188 207
681 28 174 188 187
682 22 174 188 207
683 20 170 176 175
684 9 175 176 184
685 9 170 176 184
686 20 2281 2282 2283
687 9 2283 2282 2295
688 9 2281 2282 2295
689 19 482 483 484
690 20 191 207 206
691 18 188 207 206
692 18 188 207 191
693 20 192 191 207
694 18 189 191 192
695 18 189 191 207
696 20 191 192 193
697 9 193 192 208
698 9 191 192 208
699 20 615 616 617
700 9 617 616 629
701 9 615 616 629
702 20 614 627 626
703 9 626 627 635
704 9 614 627 635
705 20 615 614 627
706 23 613 614 615
707 23 613 614 627
708 16 188 174 189
709 17 173 174 188
710 17 173 174 189
711 25 190 189 191
712 28 174 189 190
713 22 174 189 191
714 23 174 173 175
715 23 172 173 174
716 20 172 173 175
717 20 171 172 173
718 9 173 172 182
719 9 171 172 182
720 18 39 38 43
721 18 37 38 39
722 20 37 38 43
723 28 40 39 53
724 25 38 39 40
725 22 38 39 53
726 20 55 54 73
727 23 53 54 55
728 23 53 54 73
729 17 41 53 54
730 17 39 53 54
731 16 39 53 41
732 18 41 43 44
733 18 38 43 41
734 20 38 43 44
735 20 36 37 38
736 9 38 37 50
737 9 36 37 50
738 20 171 170 176
739 27 169 170 171
740 27 169 170 176
741 20 170 171 172
742 9 172 171 181
743 9 170 171 181
744 20 35 36 37
745 9 37 36 49
746 9 35 36 49
747 20 36 35 44
748 27 34 35 36
749 27 34 35 44
750 23 2519 2518 2520
751 23 2517 2518 2519
752 20 2517 2518 2520
753 25 2535 2534 2536
754 28 2519 2534 2535
755 22 2519 2534 2536
756 16 2533 2519 2534
757 17 2518 2519 2533
758 17 2518 2519 2534
759 20 2537 2536 2552
760 18 2534 2536 2537
761 18 2534 2536 2552
762 20 2536 2537 2538
763 9 2538 2537 2553
764 9 2536 2537 2553
765 25 2532 2533 2552
766 28 2519 2533 2532
767 22 2519 2533 2552
768 22 43 41 53
769 25 42 41 43
770 28 42 41 53
771 25 337 338 357
772 28 324 338 337
773 22 324 338 357
774 20 2536 2552 2551
775 18 2533 2552 2551
776 18 2533 2552 2536
777 20 35 44 43
778 9 43 44 51
779 9 35 44 51
780 20 341 357 356
781 18 338 357 356
782 18 338 357 341
783 20 54 73 59
784 9 59 73 86
785 9 54 73 86
786 27 544 543 555
787 27 542 543 544
788 20 542 543 555
789 20 540 541 542
790 9 542 541 557
791 9 540 541 557
792 16 537 506 538
793 17 505 506 537
794 17 505 506 538
795 20 2537 2538 2539
796 9 2539 2538 2554
797 9 2537 2538 2554
798 18 2347 2349 2350
799 18 2344 2349 2347
800 20 2344 2349 2350
801 25 536 537 556
802 28 506 537 536
803 22 506 537 556
804 22 2349 2347 2359
805 25 2348 2347 2349
806 28 2348 2347 2359
807 25 539 538 540
808 28 506 538 539
809 22 506 538 540
810 20 541 540 556
811 18 538 540 541
812 18 538 540 556
813 20 2360 2361 2362
814 9 2362 2361 2374
815 9 2360 2361 2374
816 20 2361 2362 2363
817 9 2363 2362 2375
818 9 2361 2362 2375
819 27 2364 2363 2372
820 27 2362 2363 2364
821 20 2362 2363 2372
822 19 2363 2364 2365
823 20 2363 2372 2373
824 9 2373 2372 2380
825 9 2363 2372 2380
826 20 2361 2360 2373
827 23 2359 2360 2361
828 23 2359 2360 2373
829 20 2539 2551 2552
830 9 2552 2551 2558
831 9 2539 2551 2558
832 20 2360 2373 2372
833 9 2372 2373 2381
834 9 2360 2373 2381
835 20 540 556 555
836 18 537 556 555
837 18 537 556 540
838 20 543 555 556
839 9 556 555 562
840 9 543 555 562
841 17 2347 2359 2360
842 17 2345 2359 2360
843 16 2345 2359 2347
844 28 2346 2345 2359
845 25 2344 2345 2346
846 22 2344 2345 2359
847 27 2540 2539 2551
848 27 2538 2539 2540
849 20 2538 2539 2551
850 20 2541 2550 2549
851 9 2549 2550 2557
852 9 2541 2550 2557
853 19 2539 2540 2541
854 18 2547 2549 2550
855 18 2544 2549 2547
856 20 2544 2549 2550
857 20 2542 2541 2550
858 27 2540 2541 2542
859 27 2540 2541 2550
860 18 2345 2344 2349
861 18 2343 2344 2345
862 20 2343 2344 2349
863 18 2545 2544 2549
864 18 2543 2544 2545
865 20 2543 2544 2549
866 20 545 546 547
867 9 547 546 559
868 9 545 546 559
869 3 2261 2246 2262
870 10 2247 2246 2261
871 10 2247 2246 2262
872 28 2546 2545 2559
873 25 2544 2545 2546
874 22 2544 2545 2559
875 22 2549 2547 2559
876 25 2548 2547 2549
877 28 2548 2547 2559
878 17 2547 2559 2560
879 17 2545 2559 2560
880 16 2545 2559 2547
881 20 546 545 554
882 27 544 545 546
883 27 544 545 554
884 19 294 295 296
885 23 2569 2568 2570
886 23 2567 2568 2569
887 20 2567 2568 2570
888 20 2565 2566 2567
889 9 2567 2566 2576
890 9 2565 2566 2576
891 20 1567 1573 1572
892 9 1572 1573 1581
893 9 1567 1573 1581
894 20 1570 1572 1573
895 9 1573 1572 1580
896 9 1570 1572 1580
897 27 1566 1565 1574
898 27 1564 1565 1566
899 20 1564 1565 1574
900 20 2563 2572 2573
901 9 2573 2572 2580
902 9 2563 2572 2580
903 19 1565 1566 1567
904 20 1568 1567 1573
905 27 1566 1567 1568
906 27 1566 1567 1573
907 20 2568 2570 2571
908 9 2571 2570 2578
909 9 2568 2570 2578
910 20 2565 2571 2570
911 9 2570 2571 2579
912 9 2565 2571 2579
913 20 2566 2565 2571
914 27 2564 2565 2566
915 27 2564 2565 2571
916 20 1565 1574 1575
917 9 1575 1574 1582
918 9 1565 1574 1582
919 20 1567 1568 1569
920 9 1569 1568 1578
921 9 1567 1568 1578
922 20 1568 1569 1570
923 9 1570 1569 1579
924 9 1568 1569 1579
925 19 2563 2564 2565
926 20 1562 1575 1574
927 9 1574 1575 1583
928 9 1562 1575 1583
929 27 2564 2563 2572
930 27 2562 2563 2564
931 20 2562 2563 2572
932 20 2299 2300 2301
933 9 2301 2300 2319
934 9 2299 2300 2319
935 20 2561 2562 2563
936 9 2563 2562 2575
937 9 2561 2562 2575
938 23 2302 2301 2303
939 23 2300 2301 2302
940 20 2300 2301 2303
941 16 2333 2302 2334
942 17 2301 2302 2333
943 17 2301 2302 2334
944 20 2301 2303 2304
945 9 2304 2303 2320
946 9 2301 2303 2320
947 23 1571 1570 1572
948 23 1569 1570 1571
949 20 1569 1570 1572
950 22 2288 2286 2298
951 25 2287 2286 2288
952 28 2287 2286 2298
953 17 2286 2298 2299
954 17 2284 2298 2299
955 16 2284 2298 2286
956 20 2300 2299 2318
957 23 2298 2299 2300
958 23 2298 2299 2318
959 18 2286 2288 2289
960 18 2283 2288 2286
961 20 2283 2288 2289
962 18 2305 2304 2318
963 18 2303 2304 2305
964 20 2303 2304 2318
965 25 2335 2334 2336
966 28 2302 2334 2335
967 22 2302 2334 2336
968 20 2560 2561 2562
969 9 2562 2561 2574
970 9 2560 2561 2574
971 28 2285 2284 2298
972 25 2283 2284 2285
973 22 2283 2284 2298
974 20 2560 2573 2572
975 9 2572 2573 2581
976 9 2560 2573 2581
977 14 2305 2307 2308
978 4 2308 2307 2321
979 8 2305 2307 2321
980 20 614 615 616
981 9 616 615 628
982 9 614 615 628
983 18 2284 2283 2288
984 18 2282 2283 2284
985 20 2282 2283 2288
986 20 2436 2437 2438
987 9 2438 2437 2453
988 9 2436 2437 2453
989 20 2437 2438 2439
990 9 2439 2438 2454
991 9 2437 2438 2454
992 20 2299 2318 2304
993 9 2304 2318 2331
994 9 2299 2318 2331
995 19 2439 2440 2441
996 27 2440 2439 2451
997 27 2438 2439 2440
998 20 2438 2439 2451
999 28 2306 2305 2307
1000 25 2304 2305 2306
1001 22 2304 2305 2307
1002 20 2442 2441 2450
1003 27 2440 2441 2442
1004 27 2440 2441 2450
1005 20 192 193 194
1006 9 194 193 209
1007 9 192 193 209
1008 20 194 206 207
1009 9 207 206 213
1010 9 194 206 213
1011 27 195 194 206
1012 27 193 194 195
1013 20 193 194 206
1014 20 215 228 227
1015 9 227 228 236
1016 9 215 228 236
1017 20 54 55 56
1018 9 56 55 74
1019 9 54 55 74
1020 19 194 195 196
1021 20 196 205 204
1022 9 204 205 212
1023 9 196 205 212
1024 20 197 196 205
1025 27 195 196 197
1026 27 195 196 205
1027 22 204 202 214
1028 25 203 202 204
1029 28 203 202 214
1030 18 202 204 205
1031 18 199 204 202
1032 20 199 204 205
1033 17 202 214 215
1034 17 200 214 215
1035 16 200 214 202
1036 20 196 197 198
1037 9 198 197 210
1038 9 196 197 210
1039 18 200 199 204
1040 18 198 199 200
1041 20 198 199 204
1042 28 201 200 214
1043 25 199 200 201
1044 22 199 200 214
1045 20 197 198 199
1046 9 199 198 211
1047 9 197 198 211
1048 20 216 215 228
1049 23 214 215 216
1050 23 214 215 228
1051 20 321 320 326
1052 27 319 320 321
1053 27 319 320 326
1054 19 318 319 320
1055 20 320 326 325
1056 9 325 326 334
1057 9 320 326 334
1058 20 321 322 323
1059 9 323 322 332
1060 9 321 322 332
1061 20 320 321 322
1062 9 322 321 331
1063 9 320 321 331
1064 16 338 324 339
1065 17 323 324 338
1066 17 323 324 339
1067 23 324 323 325
1068 23 322 323 324
1069 20 322 323 325
1070 20 323 325 326
1071 9 326 325 333
1072 9 323 325 333
1073 20 318 327 328
1074 9 328 327 335
1075 9 318 327 335
1076 27 319 318 327
1077 27 317 318 319
1078 20 317 318 327
1079 23 57 56 58
1080 23 55 56 57
1081 20 55 56 58
1082 25 87 88 107
1083 28 57 88 87
1084 22 57 88 107
1085 18 302 304 305
1086 18 299 304 302
1087 20 299 304 305
1088 20 296 305 304
1089 9 304 305 312
1090 9 296 305 312
1091 20 316 315 328
1092 23 314 315 316
1093 23 314 315 328
1094 20 1779 1778 1784
1095 27 1777 1778 1779
1096 27 1777 1778 1784
1097 22 304 302 314
1098 25 303 302 304
1099 28 303 302 314
1100 20 316 317 318
1101 9 318 317 330
1102 9 316 317 330
1103 20 2561 2560 2573
1104 23 2559 2560 2561
1105 23 2559 2560 2573
1106 20 1781 1783 1784
1107 9 1784 1783 1793
1108 9 1781 1783 1793
1109 20 1778 1784 1783
1110 9 1783 1784 1794
1111 9 1778 1784 1794
1112 20 97 98 99
1113 9 99 98 111
1114 9 97 98 111
1115 20 315 316 317
1116 9 317 316 329
1117 9 315 316 329
1118 20 96 105 104
1119 9 104 105 112
1120 9 96 105 112
1121 22 104 102 114
1122 25 103 102 104
1123 28 103 102 114
1124 18 102 104 105
1125 18 99 104 102
1126 20 99 104 105
1127 18 100 99 104
1128 18 98 99 100
1129 20 98 99 104
1130 28 101 100 114
1131 25 99 100 101
1132 22 99 100 114
1133 17 102 114 115
1134 17 100 114 115
1135 16 100 114 102
1136 20 116 115 128
1137 23 114 115 116
1138 23 114 115 128
1139 20 115 116 117
1140 9 117 116 129
1141 9 115 116 129
1142 20 115 128 127
1143 9 127 128 136
1144 9 115 128 136
1145 19 1776 1777 1778
1146 20 2247 2260 2259
1147 9 2259 2260 2270
1148 9 2247 2260 2270
1149 20 97 96 105
1150 27 95 96 97
1151 27 95 96 105
1152 20 96 97 98
1153 9 98 97 110
1154 9 96 97 110
1155 17 1549 1561 1562
1156 17 1547 1561 1562
1157 16 1547 1561 1549
1158 22 1551 1549 1561
1159 25 1550 1549 1551
1160 28 1550 1549 1561
1161 20 1383 1382 1391
1162 27 1381 1382 1383
1163 27 1381 1382 1391
1164 25 1534 1535 1554
1165 28 1521 1535 1534
1166 22 1521 1535 1554
1167 27 1542 1541 1553
1168 27 1540 1541 1542
1169 20 1540 1541 1553
1170 20 1541 1553 1554
1171 9 1554 1553 1560
1172 9 1541 1553 1560
1173 20 1538 1554 1553
1174 18 1535 1554 1553
1175 18 1535 1554 1538
1176 25 2086 2085 2087
1177 28 2070 2085 2086
1178 22 2070 2085 2087
1179 20 1543 1544 1545
1180 9 1545 1544 1557
1181 9 1543 1544 1557
1182 18 1547 1546 1551
1183 18 1545 1546 1547
1184 20 1545 1546 1551
1185 20 1544 1545 1546
1186 9 1546 1545 1558
1187 9 1544 1545 1558
1188 19 1541 1542 1543
1189 20 1544 1543 1552
1190 27 1542 1543 1544
1191 27 1542 1543 1552
1192 18 1549 1551 1552
1193 18 1546 1551 1549
1194 20 1546 1551 1552
1195 20 1543 1552 1551
1196 9 1551 1552 1559
1197 9 1543 1552 1559
1198 20 2088 2087 2103
1199 18 2085 2087 2088
1200 18 2085 2087 2103
1201 11 830 831 844
1202 20 825 832 830
1203 9 830 832 845
1204 9 825 832 845
1205 26 831 830 832
1206 26 828 830 831
1207 20 828 830 832
1208 20 826 825 832
1209 15 824 825 826
1210 15 824 825 832
1211 20 1539 1540 1541
1212 9 1541 1540 1556
1213 9 1539 1540 1556
1214 20 825 826 827
1215 9 827 826 841
1216 9 825 826 841
1217 20 2087 2103 2102
1218 18 2084 2103 2102
1219 18 2084 2103 2087
1220 20 2090 2102 2103
1221 9 2103 2102 2109
1222 9 2090 2102 2109
1223 16 2084 2070 2085
1224 17 2069 2070 2084
1225 17 2069 2070 2085
1226 28 1548 1547 1561
1227 25 1546 1547 1548
1228 22 1546 1547 1561
1229 20 826 827 828
1230 9 828 827 842
1231 9 826 827 842
1232 18 1388 1390 1391
1233 18 1385 1390 1388
1234 20 1385 1390 1391
1235 26 829 828 830
1236 26 827 828 829
1237 20 827 828 830
1238 25 2083 2084 2103
1239 28 2070 2084 2083
1240 22 2070 2084 2103
1241 20 2019 2021 2022
1242 9 2022 2021 2029
1243 9 2019 2021 2029
1244 22 1390 1388 1400
1245 25 1389 1388 1390
1246 28 1389 1388 1400
1247 11 2315 2316 2329
1248 16 1435 1404 1436
1249 17 1403 1404 1435
1250 17 1403 1404 1436
1251 20 1401 1402 1403
1252 9 1403 1402 1421
1253 9 1401 1402 1421
1254 20 2016 2022 2021
1255 9 2021 2022 2030
1256 9 2016 2022 2030
1257 23 1404 1403 1405
1258 23 1402 1403 1404
1259 20 1402 1403 1405
1260 20 1401 1420 1406
1261 9 1406 1420 1433
1262 9 1401 1420 1433
1263 18 1407 1406 1420
1264 18 1405 1406 1407
1265 20 1405 1406 1420
1266 20 1403 1405 1406
1267 9 1406 1405 1422
1268 9 1403 1405 1422
1269 28 1408 1407 1409
1270 25 1406 1407 1408
1271 22 1406 1407 1409
1272 20 2310 2311 2312
1273 9 2312 2311 2326
1274 9 2310 2311 2326
1275 20 2311 2310 2317
1276 15 2309 2310 2311
1277 15 2309 2310 2317
1278 20 2311 2312 2313
1279 9 2313 2312 2327
1280 9 2311 2312 2327
1281 27 2015 2014 2023
1282 27 2013 2014 2015
1283 20 2013 2014 2023
1284 20 2012 2013 2014
1285 9 2014 2013 2026
1286 9 2012 2013 2026
1287 20 2012 2011 2024
1288 23 2010 2011 2012
1289 23 2010 2011 2024
1290 20 2011 2012 2013
1291 9 2013 2012 2025
1292 9 2011 2012 2025
1293 17 1998 2010 2011
1294 17 1996 2010 2011
1295 16 1996 2010 1998
1296 28 1997 1996 2010
1297 25 1995 1996 1997
1298 22 1995 1996 2010
1299 22 2000 1998 2010
1300 25 1999 1998 2000
1301 28 1999 1998 2010
1302 20 2011 2024 2023
1303 9 2023 2024 2032
1304 9 2011 2024 2032
1305 26 2314 2313 2315
1306 26 2312 2313 2314
1307 20 2312 2313 2315
1308 11 2313 2314 2328
1309 20 2310 2317 2315
1310 9 2315 2317 2330
1311 9 2310 2317 2330
1312 26 2316 2315 2317
1313 26 2313 2315 2316
1314 20 2313 2315 2317
1315 20 2017 2016 2022
1316 27 2015 2016 2017
1317 27 2015 2016 2022
1318 20 1402 1401 1420
1319 23 1400 1401 1402
1320 23 1400 1401 1420
1321 17 1388 1400 1401
1322 17 1386 1400 1401
1323 16 1386 1400 1388
1324 14 1407 1409 1410
1325 4 1410 1409 1423
1326 8 1407 1409 1423
1327 21 1409 1410 1411
1328 1 1424 1410 1425
1329 6 1411 1410 1424
1330 6 1411 1410 1425
1331 12 1409 1410 1424
1332 12 1409 1410 1425
1333 20 2222 2235 2234
1334 9 2234 2235 2245
1335 9 2222 2235 2245
1336 20 2223 2222 2235
1337 23 2221 2222 2223
1338 23 2221 2222 2235
1339 20 218 227 228
1340 9 228 227 235
1341 9 218 227 235
1342 20 1937 1938 1939
1343 9 1939 1938 1954
1344 9 1937 1938 1954
1345 19 2225 2226 2227
1346 20 2227 2233 2232
1347 9 2232 2233 2243
1348 9 2227 2233 2243
1349 20 2225 2234 2235
1350 9 2235 2234 2244
1351 9 2225 2234 2244
1352 27 2226 2225 2234
1353 27 2224 2225 2226
1354 20 2224 2225 2234
1355 20 2230 2232 2233
1356 9 2233 2232 2242
1357 9 2230 2232 2242
1358 20 2228 2227 2233
1359 27 2226 2227 2228
1360 27 2226 2227 2233
1361 20 2227 2228 2229
1362 9 2229 2228 2238
1363 9 2227 2228 2238
1364 20 2228 2229 2230
1365 9 2230 2229 2239
1366 9 2228 2229 2239
1367 24 2231 2230 2232
1368 24 2229 2230 2231
1369 20 2229 2230 2232
1370 3 2240 2231 2241
1371 10 2230 2231 2240
1372 10 2230 2231 2241
1373 20 220 226 225
1374 9 225 226 234
1375 9 220 226 234
1376 20 223 225 226
1377 9 226 225 233
1378 9 223 225 233
1379 20 1803 1804 1805
1380 9 1805 1804 1816
1381 9 1803 1804 1816
1382 20 1804 1805 1806
1383 9 1806 1805 1817
1384 9 1804 1805 1817
1385 20 1827 1826 1842
1386 18 1824 1826 1827
1387 18 1824 1826 1842
1388 23 1807 1806 1808
1389 23 1805 1806 1807
1390 20 1805 1806 1808
1391 20 1806 1808 1809
1392 9 1809 1808 1818
1393 9 1806 1808 1818
1394 25 1825 1824 1826
1395 28 1807 1824 1825
1396 22 1807 1824 1826
1397 16 1823 1807 1824
1398 17 1806 1807 1823
1399 17 1806 1807 1824
1400 25 1822 1823 1842
1401 28 1807 1823 1822
1402 22 1807 1823 1842
1403 20 1826 1842 1841
1404 18 1823 1842 1841
1405 18 1823 1842 1826
1406 20 1826 1827 1828
1407 9 1828 1827 1843
1408 9 1826 1827 1843
1409 20 1804 1803 1809
1410 27 1802 1803 1804
1411 27 1802 1803 1809
1412 23 224 223 225
1413 23 222 223 224
1414 20 222 223 225
1415 20 220 221 222
1416 9 222 221 231
1417 9 220 221 231
1418 20 1803 1809 1808
1419 9 1808 1809 1819
1420 9 1803 1809 1819
1421 20 1829 1841 1842
1422 9 1842 1841 1848
1423 9 1829 1841 1848
1424 19 218 219 220
1425 20 221 220 226
1426 27 219 220 221
1427 27 219 220 226
1428 20 221 222 223
1429 9 223 222 232
1430 9 221 222 232
1431 27 219 218 227
1432 27 217 218 219
1433 20 217 218 227
1434 19 1801 1802 1803
1435 20 1827 1828 1829
1436 9 1829 1828 1844
1437 9 1827 1828 1844
1438 20 2137 2153 2152
1439 18 2134 2153 2152
1440 18 2134 2153 2137
1441 16 238 224 239
1442 17 223 224 238
1443 17 223 224 239
1444 20 2138 2137 2153
1445 18 2135 2137 2138
1446 18 2135 2137 2153
1447 25 2136 2135 2137
1448 28 2120 2135 2136
1449 22 2120 2135 2137
1450 20 2137 2138 2139
1451 9 2139 2138 2154
1452 9 2137 2138 2154
1453 20 2064 2073 2074
1454 9 2074 2073 2081
1455 9 2064 2073 2081
1456 23 2070 2069 2071
1457 23 2068 2069 2070
1458 20 2068 2069 2071
1459 20 2067 2068 2069
1460 9 2069 2068 2078
1461 9 2067 2068 2078
1462 20 2069 2071 2072
1463 9 2072 2071 2079
1464 9 2069 2071 2079
1465 20 1938 1937 1953
1466 18 1935 1937 1938
1467 18 1935 1937 1953
1468 25 1936 1935 1937
1469 28 1920 1935 1936
1470 22 1920 1935 1937
1471 16 1934 1920 1935
1472 17 1919 1920 1934
1473 17 1919 1920 1935
1474 20 2066 2067 2068
1475 9 2068 2067 2077
1476 9 2066 2067 2077
1477 20 2066 2072 2071
1478 9 2071 2072 2080
1479 9 2066 2072 2080
1480 19 2064 2065 2066
1481 20 2067 2066 2072
1482 27 2065 2066 2067
1483 27 2065 2066 2072
1484 20 1917 1918 1919
1485 9 1919 1918 1928
1486 9 1917 1918 1928
1487 23 1920 1919 1921
1488 23 1918 1919 1920
1489 20 1918 1919 1921
1490 20 1916 1917 1918
1491 9 1918 1917 1927
1492 9 1916 1917 1927
1493 20 1917 1916 1922
1494 27 1915 1916 1917
1495 27 1915 1916 1922
1496 20 1801 1810 1811
1497 9 1811 1810 1820
1498 9 1801 1810 1820
1499 20 1798 1811 1810
1500 9 1810 1811 1821
1501 9 1798 1811 1821
1502 3 16 1 17
1503 10 2 1 16
1504 10 2 1 17
1505 20 3 4 5
1506 9 5 4 19
1507 9 3 4 19
1508 20 3 2 15
1509 24 1 2 3
1510 24 1 2 15
1511 20 2 3 4
1512 9 4 3 18
1513 9 2 3 18
1514 19 1914 1915 1916
1515 27 1915 1914 1923
1516 27 1913 1914 1915
1517 20 1913 1914 1923
1518 27 1802 1801 1810
1519 27 1800 1801 1802
1520 20 1800 1801 1810
1521 20 1914 1923 1924
1522 9 1924 1923 1931
1523 9 1914 1923 1931
1524 20 2138 2139 2140
1525 9 2140 2139 2155
1526 9 2138 2139 2155
1527 20 1937 1953 1952
1528 18 1934 1953 1952
1529 18 1934 1953 1937
1530 20 1916 1922 1921
1531 9 1921 1922 1930
1532 9 1916 1922 1930
1533 20 1919 1921 1922
1534 9 1922 1921 1929
1535 9 1919 1921 1929
1536 25 1933 1934 1953
1537 28 1920 1934 1933
1538 22 1920 1934 1953
1539 20 1539 1538 1554
1540 18 1536 1538 1539
1541 18 1536 1538 1554
1542 16 1535 1521 1536
1543 17 1520 1521 1535
1544 17 1520 1521 1536
1545 20 1538 1539 1540
1546 9 1540 1539 1555
1547 9 1538 1539 1555
1548 25 1537 1536 1538
1549 28 1521 1536 1537
1550 22 1521 1536 1538
1551 11 1279 1280 1293
1552 18 1386 1385 1390
1553 18 1384 1385 1386
1554 20 1384 1385 1390
1555 11 2177 2178 2191
1556 20 1382 1383 1384
1557 9 1384 1383 1396
1558 9 1382 1383 1396
1559 20 1383 1384 1385
1560 9 1385 1384 1397
1561 9 1383 1384 1397
1562 25 789 788 790
1563 28 773 788 789
1564 22 773 788 790
1565 23 773 772 774
1566 23 771 772 773
1567 20 771 772 774
1568 16 787 773 788
1569 17 772 773 787
1570 17 772 773 788
1571 20 1144 1145 1146
1572 9 1146 1145 1158
1573 9 1144 1145 1158
1574 20 1145 1144 1153
1575 27 1143 1144 1145
1576 27 1143 1144 1153
1577 20 1144 1153 1152
1578 9 1152 1153 1160
1579 9 1144 1153 1160
1580 20 770 771 772
1581 9 772 771 781
1582 9 770 771 781
1583 20 1145 1146 1147
1584 9 1147 1146 1159
1585 9 1145 1146 1159
1586 18 1150 1152 1153
1587 18 1147 1152 1150
1588 20 1147 1152 1153
1589 20 790 791 792
1590 9 792 791 807
1591 9 790 791 807
1592 20 791 790 806
1593 18 788 790 791
1594 18 788 790 806
1595 18 1148 1147 1152
1596 18 1146 1147 1148
1597 20 1146 1147 1152
1598 19 1142 1143 1144
1599 22 1152 1150 1162
1600 25 1151 1150 1152
1601 28 1151 1150 1162
1602 27 1143 1142 1154
1603 27 1141 1142 1143
1604 20 1141 1142 1154
1605 20 1142 1154 1155
1606 9 1155 1154 1161
1607 9 1142 1154 1161
1608 20 645 646 647
1609 9 647 646 659
1610 9 645 646 659
1611 20 646 645 654
1612 27 644 645 646
1613 27 644 645 654
1614 13 1410 1411 1412
1615 2 1426 1411 1427
1616 7 1412 1411 1426
1617 7 1412 1411 1427
1618 5 1410 1411 1426
1619 5 1410 1411 1427
1620 28 1387 1386 1400
1621 25 1385 1386 1387
1622 22 1385 1386 1400
1623 20 1412 1413 1414
1624 9 1414 1413 1428
1625 9 1412 1413 1428
1626 20 1413 1412 1419
1627 15 1411 1412 1413
1628 15 1411 1412 1419
1629 20 646 647 648
1630 9 648 647 660
1631 9 646 647 660
1632 20 645 654 653
1633 9 653 654 661
1634 9 645 654 661
1635 18 651 653 654
1636 18 648 653 651
1637 20 648 653 654
1638 22 653 651 663
1639 25 652 651 653
1640 28 652 651 663
1641 18 649 648 653
1642 18 647 648 649
1643 20 647 648 653
1644 17 651 663 664
1645 17 649 663 664
1646 16 649 663 651
1647 28 650 649 663
1648 25 648 649 650
1649 22 648 649 663
1650 20 1413 1414 1415
1651 9 1415 1414 1429
1652 9 1413 1414 1429
1653 20 665 664 677
1654 23 663 664 665
1655 23 663 664 677
1656 20 664 665 666
1657 9 666 665 678
1658 9 664 665 678
1659 20 665 666 667
1660 9 667 666 679
1661 9 665 666 679
1662 26 1416 1415 1417
1663 26 1414 1415 1416
1664 20 1414 1415 1417
1665 26 1418 1417 1419
1666 26 1415 1417 1418
1667 20 1415 1417 1419
1668 20 1412 1419 1417
1669 9 1417 1419 1432
1670 9 1412 1419 1432
1671 11 1417 1418 1431
1672 20 1140 1141 1142
1673 9 1142 1141 1157
1674 9 1140 1141 1157
1675 20 1139 1140 1141
1676 9 1141 1140 1156
1677 9 1139 1140 1156
1678 20 664 677 676
1679 9 676 677 685
1680 9 664 677 685
1681 3 893 884 894
1682 10 883 884 893
1683 10 883 884 894
1684 20 1140 1139 1155
1685 18 1137 1139 1140
1686 18 1137 1139 1155
1687 20 1139 1155 1154
1688 18 1136 1155 1154
1689 18 1136 1155 1139
1690 11 1415 1416 1430
1691 20 2223 2224 2225
1692 9 2225 2224 2237
1693 9 2223 2224 2237
1694 20 883 885 886
1695 9 886 885 895
1696 9 883 885 895
1697 20 2222 2223 2224
1698 9 2224 2223 2236
1699 9 2222 2223 2236
1700 20 1942 1951 1950
1701 9 1950 1951 1958
1702 9 1942 1951 1958
1703 18 1946 1945 1950
1704 18 1944 1945 1946
1705 20 1944 1945 1950
1706 18 1948 1950 1951
1707 18 1945 1950 1948
1708 20 1945 1950 1951
1709 28 1947 1946 1960
1710 25 1945 1946 1947
1711 22 1945 1946 1960
1712 17 1948 1960 1961
1713 17 1946 1960 1961
1714 16 1946 1960 1948
1715 22 1950 1948 1960
1716 25 1949 1948 1950
1717 28 1949 1948 1960
1718 20 1964 1973 1974
1719 9 1974 1973 1981
1720 9 1964 1973 1981
1721 20 1961 1974 1973
1722 9 1973 1974 1982
1723 9 1961 1974 1982
1724 27 1965 1964 1973
1725 27 1963 1964 1965
1726 20 1963 1964 1973
1727 20 1962 1963 1964
1728 9 1964 1963 1976
1729 9 1962 1963 1976
1730 20 1962 1961 1974
1731 23 1960 1961 1962
1732 23 1960 1961 1974
1733 20 1961 1962 1963
1734 9 1963 1962 1975
1735 9 1961 1962 1975
1736 20 2140 2152 2153
1737 9 2153 2152 2159
1738 9 2140 2152 2159
1739 27 2141 2140 2152
1740 27 2139 2140 2141
1741 20 2139 2140 2152
1742 19 2140 2141 2142
1743 17 352 364 365
1744 17 350 364 365
1745 16 350 364 352
1746 19 1964 1965 1966
1747 23 1521 1520 1522
1748 23 1519 1520 1521
1749 20 1519 1520 1522
1750 20 769 770 771
1751 9 771 770 780
1752 9 769 770 780
1753 26 1280 1279 1281
1754 26 1277 1279 1280
1755 20 1277 1279 1281
1756 11 1277 1278 1292
1757 20 772 774 775
1758 9 775 774 782
1759 9 772 774 782
1760 26 1278 1277 1279
1761 26 1276 1277 1278
1762 20 1276 1277 1279
1763 20 1518 1519 1520
1764 9 1520 1519 1529
1765 9 1518 1519 1529
1766 20 1275 1276 1277
1767 9 1277 1276 1291
1768 9 1275 1276 1291
1769 20 2142 2151 2150
1770 9 2150 2151 2158
1771 9 2142 2151 2158
1772 20 2143 2142 2151
1773 27 2141 2142 2143
1774 27 2141 2142 2151
1775 18 2148 2150 2151
1776 18 2145 2150 2148
1777 20 2145 2150 2151
1778 20 2142 2143 2144
1779 9 2144 2143 2156
1780 9 2142 2143 2156
1781 22 2150 2148 2160
1782 25 2149 2148 2150
1783 28 2149 2148 2160
1784 20 2143 2144 2145
1785 9 2145 2144 2157
1786 9 2143 2144 2157
1787 18 2146 2145 2150
1788 18 2144 2145 2146
1789 20 2144 2145 2150
1790 17 2148 2160 2161
1791 17 2146 2160 2161
1792 16 2146 2160 2148
1793 28 2147 2146 2160
1794 25 2145 2146 2147
1795 22 2145 2146 2160
1796 20 769 775 774
1797 9 774 775 783
1798 9 769 775 783
1799 20 770 769 775
1800 27 768 769 770
1801 27 768 769 775
1802 19 767 768 769
1803 27 768 767 776
1804 27 766 767 768
1805 20 766 767 776
1806 20 767 776 777
1807 9 777 776 784
1808 9 767 776 784
1809 20 365 384 370
1810 9 370 384 397
1811 9 365 384 397
1812 20 765 766 767
1813 9 767 766 779
1814 9 765 766 779
1815 28 351 350 364
1816 25 349 350 351
1817 22 349 350 364
1818 20 366 365 384
1819 23 364 365 366
1820 23 364 365 384
1821 20 764 777 776
1822 9 776 777 785
1823 9 764 777 785
1824 25 786 787 806
1825 28 773 787 786
1826 22 773 787 806
1827 20 2621 2628 2626
1828 9 2626 2628 2641
1829 9 2621 2628 2641
1830 20 790 806 805
1831 18 787 806 805
1832 18 787 806 790
1833 27 794 793 805
1834 27 792 793 794
1835 20 792 793 805
1836 20 791 792 793
1837 9 793 792 808
1838 9 791 792 808
1839 20 793 805 806
1840 9 806 805 812
1841 9 793 805 812
1842 20 2342 2341 2350
1843 27 2340 2341 2342
1844 27 2340 2341 2350
1845 19 2339 2340 2341
1846 27 2340 2339 2351
1847 27 2338 2339 2340
1848 20 2338 2339 2351
1849 20 795 796 797
1850 9 797 796 809
1851 9 795 796 809
1852 20 796 797 798
1853 9 798 797 810
1854 9 796 797 810
1855 19 793 794 795
1856 20 796 795 804
1857 27 794 795 796
1858 27 794 795 804
1859 18 799 798 803
1860 18 797 798 799
1861 20 797 798 803
1862 18 801 803 804
1863 18 798 803 801
1864 20 798 803 804
1865 20 795 804 803
1866 9 803 804 811
1867 9 795 804 811
1868 3 914 899 915
1869 10 900 899 914
1870 10 900 899 915
1871 20 900 913 912
1872 9 912 913 923
1873 9 900 913 923
1874 11 2626 2627 2640
1875 26 2627 2626 2628
1876 26 2624 2626 2627
1877 20 2624 2626 2628
1878 11 2624 2625 2639
1879 25 586 587 606
1880 28 573 587 586
1881 22 573 587 606
1882 26 2625 2624 2626
1883 26 2623 2624 2625
1884 20 2623 2624 2626
1885 22 803 801 813
1886 25 802 801 803
1887 28 802 801 813
1888 20 2337 2338 2339
1889 9 2339 2338 2354
1890 9 2337 2338 2354
1891 20 901 900 913
1892 24 899 900 901
1893 24 899 900 913
1894 23 573 572 574
1895 23 571 572 573
1896 20 571 572 574
1897 20 572 574 575
1898 9 575 574 582
1899 9 572 574 582
1900 20 569 575 574
1901 9 574 575 583
1902 9 569 575 583
1903 20 593 605 606
1904 9 606 605 612
1905 9 593 605 612
1906 28 800 799 813
1907 25 798 799 800
1908 22 798 799 813
1909 20 903 912 913
1910 9 913 912 922
1911 9 903 912 922
1912 20 900 901 902
1913 9 902 901 916
1914 9 900 901 916
1915 20 570 569 575
1916 27 568 569 570
1917 27 568 569 575
1918 20 570 571 572
1919 9 572 571 581
1920 9 570 571 581
1921 20 569 570 571
1922 9 571 570 580
1923 9 569 570 580
1924 24 884 883 885
1925 24 882 883 884
1926 20 882 883 885
1927 27 668 667 676
1928 27 666 667 668
1929 20 666 667 676
1930 20 667 676 677
1931 9 677 676 684
1932 9 667 676 684
1933 27 483 482 494
1934 27 481 482 483
1935 20 481 482 494
1936 20 480 481 482
1937 9 482 481 497
1938 9 480 481 497
1939 20 479 480 481
1940 9 481 480 496
1941 9 479 480 496
1942 20 482 494 495
1943 9 495 494 501
1944 9 482 494 501
1945 20 479 495 494
1946 18 476 495 494
1947 18 476 495 479
1948 20 480 479 495
1949 18 477 479 480
1950 18 477 479 495
1951 25 478 477 479
1952 28 460 477 478
1953 22 460 477 479
1954 25 475 476 495
1955 28 460 476 475
1956 22 460 476 495
1957 20 875 876 877
1958 9 877 876 889
1959 9 875 876 889
1960 16 476 460 477
1961 17 459 460 476
1962 17 459 460 477
1963 23 460 459 461
1964 23 458 459 460
1965 20 458 459 461
1966 20 459 461 462
1967 9 462 461 471
1968 9 459 461 471
1969 20 457 458 459
1970 9 459 458 470
1971 9 457 458 470
1972 20 876 877 878
1973 9 878 877 890
1974 9 876 877 890
1975 22 603 601 613
1976 25 602 601 603
1977 28 602 601 613
1978 17 601 613 614
1979 17 599 613 614
1980 16 599 613 601
1981 20 456 457 458
1982 9 458 457 469
1983 9 456 457 469
1984 20 595 604 603
1985 9 603 604 611
1986 9 595 604 611
1987 20 881 882 883
1988 9 883 882 892
1989 9 881 882 892
1990 20 880 881 882
1991 9 882 881 891
1992 9 880 881 891
1993 20 456 462 461
1994 9 461 462 472
1995 9 456 462 472
1996 18 601 603 604
1997 18 598 603 601
1998 20 598 603 604
1999 19 33 34 35
2000 20 876 875 888
2001 23 874 875 876
2002 23 874 875 888
2003 20 344 356 357
2004 9 357 356 363
2005 9 344 356 363
2006 19 168 169 170
2007 20 881 880 886
2008 27 879 880 881
2009 27 879 880 886
2010 19 878 879 880
2011 27 879 878 887
2012 27 877 878 879
2013 20 877 878 887
2014 20 166 167 168
2015 9 168 167 180
2016 9 166 167 180
2017 20 880 886 885
2018 9 885 886 896
2019 9 880 886 896
2020 27 169 168 177
2021 27 167 168 169
2022 20 167 168 177
2023 20 168 177 178
2024 9 178 177 185
2025 9 168 177 185
2026 20 165 166 167
2027 9 167 166 179
2028 9 165 166 179
2029 20 166 165 178
2030 23 164 165 166
2031 23 164 165 178
2032 20 165 178 177
2033 9 177 178 186
2034 9 165 178 186
2035 27 345 344 356
2036 27 343 344 345
2037 20 343 344 356
2038 19 344 345 346
2039 20 347 346 355
2040 27 345 346 347
2041 27 345 346 355
2042 20 346 355 354
2043 9 354 355 362
2044 9 346 355 362
2045 20 31 32 33
2046 9 33 32 48
2047 9 31 32 48
2048 17 152 164 165
2049 17 150 164 165
2050 16 150 164 152
2051 22 154 152 164
2052 25 153 152 154
2053 28 153 152 164
2054 28 151 150 164
2055 25 149 150 151
2056 22 149 150 164
2057 20 875 888 887
2058 9 887 888 898
2059 9 875 888 898
2060 20 878 887 888
2061 9 888 887 897
2062 9 878 887 897
2063 18 352 354 355
2064 18 349 354 352
2065 20 349 354 355
2066 18 152 154 155
2067 18 149 154 152
2068 20 149 154 155
2069 20 146 155 154
2070 9 154 155 162
2071 9 146 155 162
2072 18 150 149 154
2073 18 148 149 150
2074 20 148 149 154
2075 20 346 347 348
2076 9 348 347 360
2077 9 346 347 360
2078 20 30 31 32
2079 9 32 31 47
2080 9 30 31 47
2081 20 342 343 344
2082 9 344 343 359
2083 9 342 343 359
2084 22 354 352 364
2085 25 353 352 354
2086 28 353 352 364
2087 20 342 341 357
2088 18 339 341 342
2089 18 339 341 357
2090 20 347 348 349
2091 9 349 348 361
2092 9 347 348 361
2093 18 350 349 354
2094 18 348 349 350
2095 20 348 349 354
2096 17 862 874 875
2097 17 860 874 875
2098 16 860 874 862
2099 27 34 33 45
2100 27 32 33 34
2101 20 32 33 45
2102 20 2341 2342 2343
2103 9 2343 2342 2355
2104 9 2341 2342 2355
2105 20 2541 2542 2543
2106 9 2543 2542 2555
2107 9 2541 2542 2555
2108 20 144 156 157
2109 9 157 156 163
2110 9 144 156 163
2111 20 341 342 343
2112 9 343 342 358
2113 9 341 342 358
2114 20 565 566 567
2115 9 567 566 579
2116 9 565 566 579
2117 19 567 568 569
2118 20 2342 2343 2344
2119 9 2344 2343 2356
2120 9 2342 2343 2356
2121 20 545 554 553
2122 9 553 554 561
2123 9 545 554 561
2124 20 2542 2543 2544
2125 9 2544 2543 2556
2126 9 2542 2543 2556
2127 20 546 547 548
2128 9 548 547 560
2129 9 546 547 560
2130 18 549 548 553
2131 18 547 548 549
2132 20 547 548 553
2133 18 551 553 554
2134 18 548 553 551
2135 20 548 553 554
2136 28 550 549 563
2137 25 548 549 550
2138 22 548 549 563
2139 22 553 551 563
2140 25 552 551 553
2141 28 552 551 563
2142 17 551 563 564
2143 17 549 563 564
2144 16 549 563 551
2145 20 764 765 766
2146 9 766 765 778
2147 9 764 765 778
2148 20 564 565 566
2149 9 566 565 578
2150 9 564 565 578
2151 27 568 567 576
2152 27 566 567 568
2153 20 566 567 576
2154 20 565 564 577
2155 23 563 564 565
2156 23 563 564 577
2157 20 567 576 577
2158 9 577 576 584
2159 9 567 576 584
2160 20 564 577 576
2161 9 576 577 585
2162 9 564 577 585
2163 20 141 157 156
2164 18 138 157 156
2165 18 138 157 141
2166 20 765 764 777
2167 23 763 764 765
2168 23 763 764 777
2169 25 137 138 157
2170 28 124 138 137
2171 22 124 138 157
2172 17 751 763 764
2173 17 749 763 764
2174 16 749 763 751
2175 22 753 751 763
2176 25 752 751 753
2177 28 752 751 763
2178 27 295 294 306
2179 27 293 294 295
2180 20 293 294 306
2181 20 292 293 294
2182 9 294 293 309
2183 9 292 293 309
2184 20 2087 2088 2089
2185 9 2089 2088 2104
2186 9 2087 2088 2104
2187 13 823 824 825
2188 2 839 824 840
2189 7 825 824 839
2190 7 825 824 840
2191 5 823 824 839
2192 5 823 824 840
2193 20 294 306 307
2194 9 307 306 313
2195 9 294 306 313
2196 16 587 573 588
2197 17 572 573 587
2198 17 572 573 588
2199 20 590 606 605
2200 18 587 606 605
2201 18 587 606 590
2202 20 291 292 293
2203 9 293 292 308
2204 9 291 292 308
2205 27 2091 2090 2102
2206 27 2089 2090 2091
2207 20 2089 2090 2102
2208 17 801 813 814
2209 17 799 813 814
2210 16 799 813 801
2211 20 2336 2337 2338
2212 9 2338 2337 2353
2213 9 2336 2337 2353
2214 20 2337 2336 2352
2215 18 2334 2336 2337
2216 18 2334 2336 2352
2217 28 821 820 822
2218 25 819 820 821
2219 22 819 820 822
2220 14 820 822 823
2221 4 823 822 836
2222 8 820 822 836
2223 18 820 819 833
2224 18 818 819 820
2225 20 818 819 833
2226 20 814 833 819
2227 9 819 833 846
2228 9 814 833 846
2229 20 815 814 833
2230 23 813 814 815
2231 23 813 814 833
2232 21 822 823 824
2233 1 837 823 838
2234 6 824 823 837
2235 6 824 823 838
2236 12 822 823 837
2237 12 822 823 838
2238 20 2088 2089 2090
2239 9 2090 2089 2105
2240 9 2088 2089 2105
2241 19 2090 2091 2092
2242 25 589 588 590
2243 28 573 588 589
2244 22 573 588 590
2245 20 591 590 606
2246 18 588 590 591
2247 18 588 590 606
2248 20 590 591 592
2249 9 592 591 607
2250 9 590 591 607
2251 20 591 592 593
2252 9 593 592 608
2253 9 591 592 608
2254 20 292 291 307
2255 18 289 291 292
2256 18 289 291 307
2257 25 290 289 291
2258 28 274 289 290
2259 22 274 289 291
2260 20 271 272 273
2261 9 273 272 282
2262 9 271 272 282
2263 20 291 307 306
2264 18 288 307 306
2265 18 288 307 291
2266 16 288 274 289
2267 17 273 274 288
2268 17 273 274 289
2269 20 719 725 724
2270 9 724 725 733
2271 9 719 725 733
2272 21 2307 2308 2309
2273 1 2322 2308 2323
2274 6 2309 2308 2322
2275 6 2309 2308 2323
2276 12 2307 2308 2322
2277 12 2307 2308 2323
2278 20 2014 2023 2024
2279 9 2024 2023 2031
2280 9 2014 2023 2031
2281 19 2014 2015 2016
2282 20 816 818 819
2283 9 819 818 835
2284 9 816 818 835
2285 27 594 593 605
2286 27 592 593 594
2287 20 592 593 605
2288 20 814 815 816
2289 9 816 815 834
2290 9 814 815 834
2291 23 817 816 818
2292 23 815 816 817
2293 20 815 816 818
2294 20 851 852 853
2295 9 853 852 868
2296 9 851 852 868
2297 20 852 853 854
2298 9 854 853 869
2299 9 852 853 869
2300 13 2308 2309 2310
2301 2 2324 2309 2325
2302 7 2310 2309 2324
2303 7 2310 2309 2325
2304 5 2308 2309 2324
2305 5 2308 2309 2325
2306 18 599 598 603
2307 18 597 598 599
2308 20 597 598 603
2309 28 600 599 613
2310 25 598 599 600
2311 22 598 599 613
2312 25 850 849 851
2313 28 817 849 850
2314 22 817 849 851
2315 20 852 851 867
2316 18 849 851 852
2317 18 849 851 867
2318 16 848 817 849
2319 17 816 817 848
2320 17 816 817 849
2321 20 851 867 866
2322 18 848 867 866
2323 18 848 867 851
2324 25 847 848 867
2325 28 817 848 847
2326 22 817 848 867
2327 20 596 597 598
2328 9 598 597 610
2329 9 596 597 610
2330 20 854 866 867
2331 9 867 866 873
2332 9 854 866 873
2333 27 855 854 866
2334 27 853 854 855
2335 20 853 854 866
2336 19 854 855 856
2337 20 596 595 604
2338 27 594 595 596
2339 27 594 595 604
2340 19 593 594 595
2341 20 595 596 597
2342 9 597 596 609
2343 9 595 596 609
2344 20 856 865 864
2345 9 864 865 872
2346 9 856 865 872
2347 18 862 864 865
2348 18 859 864 862
2349 20 859 864 865
2350 20 857 856 865
2351 27 855 856 857
2352 27 855 856 865
2353 20 856 857 858
2354 9 858 857 870
2355 9 856 857 870
2356 22 864 862 874
2357 25 863 862 864
2358 28 863 862 874
2359 18 860 859 864
2360 18 858 859 860
2361 20 858 859 864
2362 3 444 435 445
2363 10 434 435 444
2364 10 434 435 445
2365 20 215 216 217
2366 9 217 216 229
2367 9 215 216 229
2368 20 216 217 218
2369 9 218 217 230
2370 9 216 217 230
2371 28 861 860 874
2372 25 859 860 861
2373 22 859 860 874
2374 20 432 433 434
2375 9 434 433 443
2376 9 432 433 443
2377 20 431 432 433
2378 9 433 432 442
2379 9 431 432 442
2380 20 33 45 46
2381 9 46 45 52
2382 9 33 45 52
2383 20 31 30 46
2384 18 28 30 31
2385 18 28 30 46
2386 20 30 46 45
2387 18 27 46 45
2388 18 27 46 30
2389 20 857 858 859
2390 9 859 858 871
2391 9 857 858 871
2392 24 435 434 436
2393 24 433 434 435
2394 20 433 434 436
2395 20 431 437 436
2396 9 436 437 447
2397 9 431 437 447
2398 20 434 436 437
2399 9 437 436 446
2400 9 434 436 446
2401 25 29 28 30
2402 28 11 28 29
2403 22 11 28 30
2404 20 432 431 437
2405 27 430 431 432
2406 27 430 431 437
2407 25 26 27 46
2408 28 11 27 26
2409 22 11 27 46
2410 16 27 11 28
2411 17 10 11 27
2412 17 10 11 28
2413 23 11 10 12
2414 23 9 10 11
2415 20 9 10 12
2416 20 8 9 10
2417 9 10 9 21
2418 9 8 9 21
2419 20 7 8 9
2420 9 9 8 20
2421 9 7 8 20
2422 20 10 12 13
2423 9 13 12 22
2424 9 10 12 22
2425 20 7 13 12
2426 9 12 13 23
2427 9 7 13 23
2428 20 8 7 13
2429 27 6 7 8
2430 27 6 7 13
2431 27 6 5 14
2432 27 4 5 6
2433 20 4 5 14
2434 20 2 15 14
2435 9 14 15 25
2436 9 2 15 25
2437 19 5 6 7
2438 25 340 339 341
2439 28 324 339 340
2440 22 324 339 341
2441 20 118 127 128
2442 9 128 127 135
2443 9 118 127 135
2444 20 116 117 118
2445 9 118 117 130
2446 9 116 117 130
2447 27 119 118 127
2448 27 117 118 119
2449 20 117 118 127
2450 20 270 271 272
2451 9 272 271 281
2452 9 270 271 281
2453 20 1799 1800 1801
2454 9 1801 1800 1815
2455 9 1799 1800 1815
2456 20 1798 1799 1800
2457 9 1800 1799 1814
2458 9 1798 1799 1814
2459 3 1812 1797 1813
2460 10 1798 1797 1812
2461 10 1798 1797 1813
2462 20 1799 1798 1811
2463 24 1797 1798 1799
2464 24 1797 1798 1811
2465 25 287 288 307
2466 28 274 288 287
2467 22 274 288 307
2468 20 120 126 125
2469 9 125 126 134
2470 9 120 126 134
2471 20 121 122 123
2472 9 123 122 132
2473 9 121 122 132
2474 20 121 120 126
2475 27 119 120 121
2476 27 119 120 126
2477 20 120 121 122
2478 9 122 121 131
2479 9 120 121 131
2480 19 118 119 120
2481 20 142 141 157
2482 18 139 141 142
2483 18 139 141 157
2484 16 138 124 139
2485 17 123 124 138
2486 17 123 124 139
2487 20 123 125 126
2488 9 126 125 133
2489 9 123 125 133
2490 25 140 139 141
2491 28 124 139 140
2492 22 124 139 141
2493 20 5 14 15
2494 9 15 14 24
2495 9 5 14 24
2496 23 124 123 125
2497 23 122 123 124
2498 20 122 123 125
2499 23 274 273 275
2500 23 272 273 274
2501 20 272 273 275
2502 20 273 275 276
2503 9 276 275 283
2504 9 273 275 283
2505 20 271 270 276
2506 27 269 270 271
2507 27 269 270 276
2508 20 270 276 275
2509 9 275 276 284
2510 9 270 276 284
2511 19 268 269 270
2512 11 828 829 843
2513 20 1303 1315 1316
2514 9 1316 1315 1322
2515 9 1303 1315 1322
2516 19 1042 1043 1044
2517 27 1043 1042 1054
2518 27 1041 1042 1043
2519 20 1041 1042 1054
2520 20 1040 1041 1042
2521 9 1042 1041 1057
2522 9 1040 1041 1057
2523 20 1039 1040 1041
2524 9 1041 1040 1056
2525 9 1039 1040 1056
2526 20 1612 1625 1624
2527 9 1624 1625 1633
2528 9 1612 1625 1633
2529 20 1615 1624 1625
2530 9 1625 1624 1632
2531 9 1615 1624 1632
2532 20 1613 1612 1625
2533 23 1611 1612 1613
2534 23 1611 1612 1625
2535 25 1296 1297 1316
2536 28 1266 1297 1296
2537 22 1266 1297 1316
2538 20 1300 1316 1315
2539 18 1297 1316 1315
2540 18 1297 1316 1300
2541 20 1263 1264 1265
2542 9 1265 1264 1283
2543 9 1263 1264 1283
2544 20 1264 1263 1282
2545 23 1262 1263 1264
2546 23 1262 1263 1282
2547 16 1297 1266 1298
2548 17 1265 1266 1297
2549 17 1265 1266 1298
2550 23 1266 1265 1267
2551 23 1264 1265 1266
2552 20 1264 1265 1267
2553 25 1299 1298 1300
2554 28 1266 1298 1299
2555 22 1266 1298 1300
2556 20 1301 1300 1316
2557 18 1298 1300 1301
2558 18 1298 1300 1316
2559 20 1263 1282 1268
2560 9 1268 1282 1295
2561 9 1263 1282 1295
2562 20 1265 1267 1268
2563 9 1268 1267 1284
2564 9 1265 1267 1284
2565 17 1250 1262 1263
2566 17 1248 1262 1263
2567 16 1248 1262 1250
2568 22 1252 1250 1262
2569 25 1251 1250 1252
2570 28 1251 1250 1262
2571 17 1599 1611 1612
2572 17 1597 1611 1612
2573 16 1597 1611 1599
2574 18 1269 1268 1282
2575 18 1267 1268 1269
2576 20 1267 1268 1282
2577 28 1249 1248 1262
2578 25 1247 1248 1249
2579 22 1247 1248 1262
2580 27 1616 1615 1624
2581 27 1614 1615 1616
2582 20 1614 1615 1624
2583 20 1618 1617 1623
2584 27 1616 1617 1618
2585 27 1616 1617 1623
2586 28 1598 1597 1611
2587 25 1596 1597 1598
2588 22 1596 1597 1611
2589 27 1304 1303 1315
2590 27 1302 1303 1304
2591 20 1302 1303 1315
2592 28 1270 1269 1271
2593 25 1268 1269 1270
2594 22 1268 1269 1271
2595 20 1042 1054 1055
2596 9 1055 1054 1061
2597 9 1042 1054 1061
2598 20 1617 1618 1619
2599 9 1619 1618 1628
2600 9 1617 1618 1628
2601 18 1998 2000 2001
2602 18 1995 2000 1998
2603 20 1995 2000 2001
2604 18 1996 1995 2000
2605 18 1994 1995 1996
2606 20 1994 1995 2000
2607 20 1045 1044 1053
2608 27 1043 1044 1045
2609 27 1043 1044 1053
2610 20 1044 1053 1052
2611 9 1052 1053 1060
2612 9 1044 1053 1060
2613 20 1993 1994 1995
2614 9 1995 1994 2007
2615 9 1993 1994 2007
2616 20 1992 2001 2000
2617 9 2000 2001 2008
2618 9 1992 2001 2008
2619 20 1305 1314 1313
2620 9 1313 1314 1321
2621 9 1305 1314 1321
2622 20 1992 1993 1994
2623 9 1994 1993 2006
2624 9 1992 1993 2006
2625 20 1993 1992 2001
2626 27 1991 1992 1993
2627 27 1991 1992 2001
2628 18 1048 1047 1052
2629 18 1046 1047 1048
2630 20 1046 1047 1052
2631 20 1324 1325 1326
2632 9 1326 1325 1338
2633 9 1324 1325 1338
2634 22 1313 1311 1323
2635 25 1312 1311 1313
2636 28 1312 1311 1323
2637 28 1049 1048 1062
2638 25 1047 1048 1049
2639 22 1047 1048 1062
2640 20 1325 1324 1337
2641 23 1323 1324 1325
2642 23 1323 1324 1337
2643 17 1311 1323 1324
2644 17 1309 1323 1324
2645 16 1309 1323 1311
2646 18 1050 1052 1053
2647 18 1047 1052 1050
2648 20 1047 1052 1053
2649 22 1052 1050 1062
2650 25 1051 1050 1052
2651 28 1051 1050 1062
2652 17 1050 1062 1063
2653 17 1048 1062 1063
2654 16 1048 1062 1050
2655 20 1064 1063 1076
2656 23 1062 1063 1064
2657 23 1062 1063 1076
2658 20 1063 1076 1075
2659 9 1075 1076 1084
2660 9 1063 1076 1084
2661 20 1618 1619 1620
2662 9 1620 1619 1629
2663 9 1618 1619 1629
2664 20 1324 1337 1336
2665 9 1336 1337 1347
2666 9 1324 1337 1347
2667 18 1311 1313 1314
2668 18 1308 1313 1311
2669 20 1308 1313 1314
2670 20 1044 1045 1046
2671 9 1046 1045 1058
2672 9 1044 1045 1058
2673 20 1066 1075 1076
2674 9 1076 1075 1083
2675 9 1066 1075 1083
2676 20 1327 1336 1337
2677 9 1337 1336 1346
2678 9 1327 1336 1346
2679 20 1045 1046 1047
2680 9 1047 1046 1059
2681 9 1045 1046 1059
2682 20 1063 1064 1065
2683 9 1065 1064 1077
2684 9 1063 1064 1077
2685 28 1310 1309 1323
2686 25 1308 1309 1310
2687 22 1308 1309 1323
2688 11 1864 1865 1879
2689 19 1990 1991 1992
2690 20 1325 1326 1327
2691 9 1327 1326 1339
2692 9 1325 1326 1339
2693 27 1830 1829 1841
2694 27 1828 1829 1830
2695 20 1828 1829 1841
2696 20 1990 2002 2003
2697 9 2003 2002 2009
2698 9 1990 2002 2009
2699 27 1991 1990 2002
2700 27 1989 1990 1991
2701 20 1989 1990 2002
2702 25 240 239 241
2703 28 224 239 240
2704 22 224 239 241
2705 19 1829 1830 1831
2706 27 1328 1327 1336
2707 27 1326 1327 1328
2708 20 1326 1327 1336
2709 20 1831 1840 1839
2710 9 1839 1840 1847
2711 9 1831 1840 1847
2712 20 1832 1831 1840
2713 27 1830 1831 1832
2714 27 1830 1831 1840
2715 20 1988 1989 1990
2716 9 1990 1989 2005
2717 9 1988 1989 2005
2718 20 1987 1988 1989
2719 9 1989 1988 2004
2720 9 1987 1988 2004
2721 20 2119 2121 2122
2722 9 2122 2121 2129
2723 9 2119 2121 2129
2724 20 1831 1832 1833
2725 9 1833 1832 1845
2726 9 1831 1832 1845
2727 20 1850 1869 1855
2728 9 1855 1869 1882
2729 9 1850 1869 1882
2730 22 1839 1837 1849
2731 25 1838 1837 1839
2732 28 1838 1837 1849
2733 20 1851 1850 1869
2734 23 1849 1850 1851
2735 23 1849 1850 1869
2736 18 1837 1839 1840
2737 18 1834 1839 1837
2738 20 1834 1839 1840
2739 17 1837 1849 1850
2740 17 1835 1849 1850
2741 16 1835 1849 1837
2742 18 1835 1834 1839
2743 18 1833 1834 1835
2744 20 1833 1834 1839
2745 28 1836 1835 1849
2746 25 1834 1835 1836
2747 22 1834 1835 1849
2748 20 1850 1851 1852
2749 9 1852 1851 1870
2750 9 1850 1851 1870
2751 20 2116 2122 2121
2752 9 2121 2122 2130
2753 9 2116 2122 2130
2754 20 1832 1833 1834
2755 9 1834 1833 1846
2756 9 1832 1833 1846
2757 23 2120 2119 2121
2758 23 2118 2119 2120
2759 20 2118 2119 2121
2760 25 2133 2134 2153
2761 28 2120 2134 2133
2762 22 2120 2134 2153
2763 16 2134 2120 2135
2764 17 2119 2120 2134
2765 17 2119 2120 2135
2766 19 1327 1328 1329
2767 23 1853 1852 1854
2768 23 1851 1852 1853
2769 20 1851 1852 1854
2770 20 2117 2116 2122
2771 27 2115 2116 2117
2772 27 2115 2116 2122
2773 18 1856 1855 1869
2774 18 1854 1855 1856
2775 20 1854 1855 1869
2776 20 241 242 243
2777 9 243 242 258
2778 9 241 242 258
2779 20 242 241 257
2780 18 239 241 242
2781 18 239 241 257
2782 20 1912 1913 1914
2783 9 1914 1913 1926
2784 9 1912 1913 1926
2785 20 2117 2118 2119
2786 9 2119 2118 2128
2787 9 2117 2118 2128
2788 19 2114 2115 2116
2789 20 2116 2117 2118
2790 9 2118 2117 2127
2791 9 2116 2117 2127
2792 14 1269 1271 1272
2793 4 1272 1271 1285
2794 8 1269 1271 1285
2795 20 1911 1924 1923
2796 9 1923 1924 1932
2797 9 1911 1924 1932
2798 27 2115 2114 2123
2799 27 2113 2114 2115
2800 20 2113 2114 2123
2801 20 2114 2123 2124
2802 9 2124 2123 2131
2803 9 2114 2123 2131
2804 20 1911 1912 1913
2805 9 1913 1912 1925
2806 9 1911 1912 1925
2807 20 1912 1911 1924
2808 23 1910 1911 1912
2809 23 1910 1911 1924
2810 17 1898 1910 1911
2811 17 1896 1910 1911
2812 16 1896 1910 1898
2813 22 1900 1898 1910
2814 25 1899 1898 1900
2815 28 1899 1898 1910
2816 28 1897 1896 1910
2817 25 1895 1896 1897
2818 22 1895 1896 1910
2819 20 2111 2124 2123
2820 9 2123 2124 2132
2821 9 2111 2124 2132
2822 21 1271 1272 1273
2823 1 1286 1272 1287
2824 6 1273 1272 1286
2825 6 1273 1272 1287
2826 12 1271 1272 1286
2827 12 1271 1272 1287
2828 18 1898 1900 1901
2829 18 1895 1900 1898
2830 20 1895 1900 1901
2831 18 1896 1895 1900
2832 18 1894 1895 1896
2833 20 1894 1895 1900
2834 20 1892 1901 1900
2835 9 1900 1901 1908
2836 9 1892 1901 1908
2837 20 1893 1894 1895
2838 9 1895 1894 1907
2839 9 1893 1894 1907
2840 13 1721 1722 1723
2841 2 1737 1722 1738
2842 7 1723 1722 1737
2843 7 1723 1722 1738
2844 5 1721 1722 1737
2845 5 1721 1722 1738
2846 21 1720 1721 1722
2847 1 1735 1721 1736
2848 6 1722 1721 1735
2849 6 1722 1721 1736
2850 12 1720 1721 1735
2851 12 1720 1721 1736
2852 20 1893 1892 1901
2853 27 1891 1892 1893
2854 27 1891 1892 1901
2855 20 1724 1723 1730
2856 15 1722 1723 1724
2857 15 1722 1723 1730
2858 20 1723 1730 1728
2859 9 1728 1730 1743
2860 9 1723 1730 1743
2861 26 1729 1728 1730
2862 26 1726 1728 1729
2863 20 1726 1728 1730
2864 11 1728 1729 1742
2865 18 1250 1252 1253
2866 18 1247 1252 1250
2867 20 1247 1252 1253
2868 20 1039 1055 1054
2869 18 1036 1055 1054
2870 18 1036 1055 1039
2871 20 1040 1039 1055
2872 18 1037 1039 1040
2873 18 1037 1039 1055
2874 28 1149 1148 1162
2875 25 1147 1148 1149
2876 22 1147 1148 1162
2877 17 1150 1162 1163
2878 17 1148 1162 1163
2879 16 1148 1162 1150
2880 20 1164 1163 1176
2881 23 1162 1163 1164
2882 23 1162 1163 1176
2883 20 1163 1176 1175
2884 9 1175 1176 1184
2885 9 1163 1176 1184
2886 16 1036 1022 1037
2887 17 1021 1022 1036
2888 17 1021 1022 1037
2889 25 1035 1036 1055
2890 28 1022 1036 1035
2891 22 1022 1036 1055
2892 20 1019 1020 1021
2893 9 1021 1020 1030
2894 9 1019 1020 1030
2895 23 1022 1021 1023
2896 23 1020 1021 1022
2897 20 1020 1021 1023
2898 20 1021 1023 1024
2899 9 1024 1023 1031
2900 9 1021 1023 1031
2901 20 1018 1024 1023
2902 9 1023 1024 1032
2903 9 1018 1024 1032
2904 25 1038 1037 1039
2905 28 1022 1037 1038
2906 22 1022 1037 1039
2907 20 1018 1019 1020
2908 9 1020 1019 1029
2909 9 1018 1019 1029
2910 20 905 906 907
2911 9 907 906 918
2912 9 905 906 918
2913 20 906 907 908
2914 9 908 907 919
2915 9 906 907 919
2916 23 909 908 910
2917 23 907 908 909
2918 20 907 908 910
2919 13 2619 2620 2621
2920 2 2635 2620 2636
2921 7 2621 2620 2635
2922 7 2621 2620 2636
2923 5 2619 2620 2635
2924 5 2619 2620 2636
2925 20 1166 1175 1176
2926 9 1176 1175 1183
2927 9 1166 1175 1183
2928 20 1163 1164 1165
2929 9 1165 1164 1177
2930 9 1163 1164 1177
2931 20 1019 1018 1024
2932 27 1017 1018 1019
2933 27 1017 1018 1024
2934 20 908 910 911
2935 9 911 910 920
2936 9 908 910 920
2937 16 925 909 926
2938 17 908 909 925
2939 17 908 909 926
2940 25 927 926 928
2941 28 909 926 927
2942 22 909 926 928
2943 20 1244 1253 1252
2944 9 1252 1253 1260
2945 9 1244 1253 1260
2946 25 924 925 944
2947 28 909 925 924
2948 22 909 925 944
2949 20 906 905 911
2950 27 904 905 906
2951 27 904 905 911
2952 20 905 911 910
2953 9 910 911 921
2954 9 905 911 921
2955 19 1016 1017 1018
2956 20 929 928 944
2957 18 926 928 929
2958 18 926 928 944
2959 20 928 929 930
2960 9 930 929 945
2961 9 928 929 945
2962 20 928 944 943
2963 18 925 944 943
2964 18 925 944 928
2965 20 929 930 931
2966 9 931 930 946
2967 9 929 930 946
2968 27 932 931 943
2969 27 930 931 932
2970 20 930 931 943
2971 20 931 943 944
2972 9 944 943 950
2973 9 931 943 950
2974 25 1138 1137 1139
2975 28 1122 1137 1138
2976 22 1122 1137 1139
2977 25 1135 1136 1155
2978 28 1122 1136 1135
2979 22 1122 1136 1155
2980 16 1136 1122 1137
2981 17 1121 1122 1136
2982 17 1121 1122 1137
2983 19 931 932 933
2984 20 1119 1120 1121
2985 9 1121 1120 1130
2986 9 1119 1120 1130
2987 23 1122 1121 1123
2988 23 1120 1121 1122
2989 20 1120 1121 1123
2990 20 1118 1119 1120
2991 9 1120 1119 1129
2992 9 1118 1119 1129
2993 20 934 933 942
2994 27 932 933 934
2995 27 932 933 942
2996 20 933 934 935
2997 9 935 934 947
2998 9 933 934 947
2999 20 933 942 941
3000 9 941 942 949
3001 9 933 942 949
3002 20 1987 2003 2002
3003 18 1984 2003 2002
3004 18 1984 2003 1987
3005 20 365 366 367
3006 9 367 366 385
3007 9 365 366 385
3008 20 1967 1966 1972
3009 27 1965 1966 1967
3010 27 1965 1966 1972
3011 20 1966 1967 1968
3012 9 1968 1967 1977
3013 9 1966 1967 1977
3014 20 1988 1987 2003
3015 18 1985 1987 1988
3016 18 1985 1987 2003
3017 25 1983 1984 2003
3018 28 1970 1984 1983
3019 22 1970 1984 2003
3020 20 1969 1971 1972
3021 9 1972 1971 1979
3022 9 1969 1971 1979
3023 20 1966 1972 1971
3024 9 1971 1972 1980
3025 9 1966 1972 1980
3026 20 1967 1968 1969
3027 9 1969 1968 1978
3028 9 1967 1968 1978
3029 23 1970 1969 1971
3030 23 1968 1969 1970
3031 20 1968 1969 1971
3032 16 1984 1970 1985
3033 17 1969 1970 1984
3034 17 1969 1970 1985
3035 25 1986 1985 1987
3036 28 1970 1985 1986
3037 22 1970 1985 1987
3038 25 401 400 402
3039 28 368 400 401
3040 22 368 400 402
3041 23 368 367 369
3042 23 366 367 368
3043 20 366 367 369
3044 20 402 403 404
3045 9 404 403 419
3046 9 402 403 419
3047 16 399 368 400
3048 17 367 368 399
3049 17 367 368 400
3050 20 403 402 418
3051 18 400 402 403
3052 18 400 402 418
3053 20 403 404 405
3054 9 405 404 420
3055 9 403 404 420
3056 20 402 418 417
3057 18 399 418 417
3058 18 399 418 402
3059 20 1274 1281 1279
3060 9 1279 1281 1294
3061 9 1274 1281 1294
3062 21 2618 2619 2620
3063 1 2633 2619 2634
3064 6 2620 2619 2633
3065 6 2620 2619 2634
3066 12 2618 2619 2633
3067 12 2618 2619 2634
3068 27 1167 1166 1175
3069 27 1165 1166 1167
3070 20 1165 1166 1175
3071 18 371 370 384
3072 18 369 370 371
3073 20 369 370 384
3074 20 1274 1275 1276
3075 9 1276 1275 1290
3076 9 1274 1275 1290
3077 14 1718 1720 1721
3078 4 1721 1720 1734
3079 8 1718 1720 1734
3080 28 372 371 373
3081 25 370 371 372
3082 22 370 371 373
3083 13 1272 1273 1274
3084 2 1288 1273 1289
3085 7 1274 1273 1288
3086 7 1274 1273 1289
3087 5 1272 1273 1288
3088 5 1272 1273 1289
3089 20 1723 1724 1725
3090 9 1725 1724 1739
3091 9 1723 1724 1739
3092 20 1724 1725 1726
3093 9 1726 1725 1740
3094 9 1724 1725 1740
3095 11 1726 1727 1741
3096 26 1727 1726 1728
3097 26 1725 1726 1727
3098 20 1725 1726 1728
3099 20 367 369 370
3100 9 370 369 386
3101 9 367 369 386
3102 20 1275 1274 1281
3103 15 1273 1274 1275
3104 15 1273 1274 1281
3105 20 1164 1165 1166
3106 9 1166 1165 1178
3107 9 1164 1165 1178
3108 21 373 374 375
3109 1 388 374 389
3110 6 375 374 388
3111 6 375 374 389
3112 12 373 374 388
3113 12 373 374 389
3114 19 1166 1167 1168
3115 20 1168 1169 1170
3116 9 1170 1169 1179
3117 9 1168 1169 1179
3118 20 1169 1168 1174
3119 27 1167 1168 1169
3120 27 1167 1168 1174
3121 20 1168 1174 1173
3122 9 1173 1174 1182
3123 9 1168 1174 1182
3124 20 1169 1170 1171
3125 9 1171 1170 1180
3126 9 1169 1170 1180
3127 20 1171 1173 1174
3128 9 1174 1173 1181
3129 9 1171 1173 1181
3130 14 371 373 374
3131 4 374 373 387
3132 8 371 373 387
3133 13 374 375 376
3134 2 390 375 391
3135 7 376 375 390
3136 7 376 375 391
3137 5 374 375 390
3138 5 374 375 391
3139 23 1172 1171 1173
3140 23 1170 1171 1172
3141 20 1170 1171 1173
3142 20 376 383 381
3143 9 381 383 396
3144 9 376 383 396
3145 11 381 382 395
3146 20 377 376 383
3147 15 375 376 377
3148 15 375 376 383
3149 26 382 381 383
3150 26 379 381 382
3151 20 379 381 383
3152 28 1719 1718 1720
3153 25 1717 1718 1719
3154 22 1717 1718 1720
3155 14 2616 2618 2619
3156 4 2619 2618 2632
3157 8 2616 2618 2632
3158 19 903 904 905
3159 20 901 902 903
3160 9 903 902 917
3161 9 901 902 917
3162 20 2622 2623 2624
3163 9 2624 2623 2638
3164 9 2622 2623 2638
3165 28 2617 2616 2618
3166 25 2615 2616 2617
3167 22 2615 2616 2618
3168 27 904 903 912
3169 27 902 903 904
3170 20 902 903 912
3171 20 2612 2614 2615
3172 9 2615 2614 2631
3173 9 2612 2614 2631
3174 23 2613 2612 2614
3175 23 2611 2612 2613
3176 20 2611 2612 2614
3177 18 2616 2615 2629
3178 18 2614 2615 2616
3179 20 2614 2615 2629
3180 20 2610 2611 2612
3181 9 2612 2611 2630
3182 9 2610 2611 2630
3183 16 2644 2613 2645
3184 17 2612 2613 2644
3185 17 2612 2613 2645
3186 25 2643 2644 2663
3187 28 2613 2644 2643
3188 22 2613 2644 2663
3189 20 2392 2393 2394
3190 9 2394 2393 2406
3191 9 2392 2393 2406
3192 20 2391 2392 2393
3193 9 2393 2392 2405
3194 9 2391 2392 2405
3195 28 2396 2395 2409
3196 25 2394 2395 2396
3197 22 2394 2395 2409
3198 18 2395 2394 2399
3199 18 2393 2394 2395
3200 20 2393 2394 2399
3201 20 2647 2663 2662
3202 18 2644 2663 2662
3203 18 2644 2663 2647
3204 20 2650 2662 2663
3205 9 2663 2662 2669
3206 9 2650 2662 2669
3207 25 2646 2645 2647
3208 28 2613 2645 2646
3209 22 2613 2645 2647
3210 20 2648 2647 2663
3211 18 2645 2647 2648
3212 18 2645 2647 2663
3213 27 2651 2650 2662
3214 27 2649 2650 2651
3215 20 2649 2650 2662
3216 20 2610 2629 2615
3217 9 2615 2629 2642
3218 9 2610 2629 2642
3219 20 2392 2391 2400
3220 27 2390 2391 2392
3221 27 2390 2391 2400
3222 20 2622 2621 2628
3223 15 2620 2621 2622
3224 15 2620 2621 2628
3225 20 2621 2622 2623
3226 9 2623 2622 2637
3227 9 2621 2622 2637
3228 20 740 741 742
3229 9 742 741 757
3230 9 740 741 757
3231 20 2611 2610 2629
3232 23 2609 2610 2611
3233 23 2609 2610 2629
3234 20 2647 2648 2649
3235 9 2649 2648 2664
3236 9 2647 2648 2664
3237 20 2648 2649 2650
3238 9 2650 2649 2665
3239 9 2648 2649 2665
3240 19 2650 2651 2652
3241 20 741 740 756
3242 18 738 740 741
3243 18 738 740 756
3244 20 669 675 674
3245 9 674 675 683
3246 9 669 675 683
3247 20 457 456 462
3248 27 455 456 457
3249 27 455 456 462
3250 20 1119 1118 1124
3251 27 1117 1118 1119
3252 27 1117 1118 1124
3253 19 1116 1117 1118
3254 19 667 668 669
3255 20 670 669 675
3256 27 668 669 670
3257 27 668 669 675
3258 20 672 674 675
3259 9 675 674 682
3260 9 672 674 682
3261 20 669 670 671
3262 9 671 670 680
3263 9 669 670 680
3264 23 673 672 674
3265 23 671 672 673
3266 20 671 672 674
3267 20 670 671 672
3268 9 672 671 681
3269 9 670 671 681
3270 19 454 455 456
3271 27 455 454 463
3272 27 453 454 455
3273 20 453 454 463
3274 20 452 453 454
3275 9 454 453 468
3276 9 452 453 468
3277 16 687 673 688
3278 17 672 673 687
3279 17 672 673 688
3280 25 686 687 706
3281 28 673 687 686
3282 22 673 687 706
3283 20 1121 1123 1124
3284 9 1124 1123 1131
3285 9 1121 1123 1131
3286 20 1118 1124 1123
3287 9 1123 1124 1132
3288 9 1118 1124 1132
3289 20 451 452 453
3290 9 453 452 467
3291 9 451 452 467
3292 20 452 451 464
3293 24 450 451 452
3294 24 450 451 464
3295 27 1117 1116 1125
3296 27 1115 1116 1117
3297 20 1115 1116 1125
3298 20 1114 1115 1116
3299 9 1116 1115 1128
3300 9 1114 1115 1128
3301 3 465 450 466
3302 10 451 450 465
3303 10 451 450 466
3304 20 454 463 464
3305 9 464 463 473
3306 9 454 463 473
3307 20 451 464 463
3308 9 463 464 474
3309 9 451 464 474
3310 25 689 688 690
3311 28 673 688 689
3312 22 673 688 690
3313 20 691 690 706
3314 18 688 690 691
3315 18 688 690 706
3316 20 690 706 705
3317 18 687 706 705
3318 18 687 706 690
3319 20 1113 1114 1115
3320 9 1115 1114 1127
3321 9 1113 1114 1127
3322 20 690 691 692
3323 9 692 691 707
3324 9 690 691 707
3325 20 1116 1125 1126
3326 9 1126 1125 1133
3327 9 1116 1125 1133
3328 20 1114 1113 1126
3329 23 1112 1113 1114
3330 23 1112 1113 1126
3331 25 398 399 418
3332 28 368 399 398
3333 22 368 399 418
3334 27 145 144 156
3335 27 143 144 145
3336 20 143 144 156
3337 20 147 146 155
3338 27 145 146 147
3339 27 145 146 155
3340 20 426 427 428
3341 9 428 427 440
3342 9 426 427 440
3343 20 147 148 149
3344 9 149 148 161
3345 9 147 148 161
3346 11 68 69 83
3347 20 407 416 415
3348 9 415 416 423
3349 9 407 416 423
3350 22 415 413 425
3351 25 414 413 415
3352 28 414 413 425
3353 18 413 415 416
3354 18 410 415 413
3355 20 410 415 416
3356 19 144 145 146
3357 20 146 147 148
3358 9 148 147 160
3359 9 146 147 160
3360 20 408 407 416
3361 27 406 407 408
3362 27 406 407 416
3363 20 407 408 409
3364 9 409 408 421
3365 9 407 408 421
3366 20 405 417 418
3367 9 418 417 424
3368 9 405 417 424
3369 27 406 405 417
3370 27 404 405 406
3371 20 404 405 417
3372 19 405 406 407
3373 18 411 410 415
3374 18 409 410 411
3375 20 409 410 415
3376 20 408 409 410
3377 9 410 409 422
3378 9 408 409 422
3379 17 413 425 426
3380 17 411 425 426
3381 16 411 425 413
3382 28 412 411 425
3383 25 410 411 412
3384 22 410 411 425
3385 26 69 68 70
3386 26 67 68 69
3387 20 67 68 70
3388 20 427 426 439
3389 23 425 426 427
3390 23 425 426 439
3391 20 376 377 378
3392 9 378 377 392
3393 9 376 377 392
3394 26 380 379 381
3395 26 378 379 380
3396 20 378 379 381
3397 19 2389 2390 2391
3398 11 379 380 394
3399 28 750 749 763
3400 25 748 749 750
3401 22 748 749 763
3402 20 746 747 748
3403 9 748 747 760
3404 9 746 747 760
3405 18 751 753 754
3406 18 748 753 751
3407 20 748 753 754
3408 18 749 748 753
3409 18 747 748 749
3410 20 747 748 753
3411 20 745 746 747
3412 9 747 746 759
3413 9 745 746 759
3414 20 745 754 753
3415 9 753 754 761
3416 9 745 754 761
3417 20 746 745 754
3418 27 744 745 746
3419 27 744 745 754
3420 20 2492 2493 2494
3421 9 2494 2493 2506
3422 9 2492 2493 2506
3423 19 743 744 745
3424 20 2491 2492 2493
3425 9 2493 2492 2505
3426 9 2491 2492 2505
3427 20 741 742 743
3428 9 743 742 758
3429 9 741 742 758
3430 19 2489 2490 2491
3431 20 377 378 379
3432 9 379 378 393
3433 9 377 378 393
3434 27 2490 2489 2501
3435 27 2488 2489 2490
3436 20 2488 2489 2501
3437 20 2492 2491 2500
3438 27 2490 2491 2492
3439 27 2490 2491 2500
3440 20 2489 2501 2502
3441 9 2502 2501 2508
3442 9 2489 2501 2508
3443 27 744 743 755
3444 27 742 743 744
3445 20 742 743 755
3446 20 2491 2500 2499
3447 9 2499 2500 2507
3448 9 2491 2500 2507
3449 18 2495 2494 2499
3450 18 2493 2494 2495
3451 20 2493 2494 2499
3452 18 2497 2499 2500
3453 18 2494 2499 2497
3454 20 2494 2499 2500
3455 20 2093 2092 2101
3456 27 2091 2092 2093
3457 27 2091 2092 2101
3458 19 717 718 719
3459 19 1615 1616 1617
3460 20 1300 1301 1302
3461 9 1302 1301 1317
3462 9 1300 1301 1317
3463 20 1301 1302 1303
3464 9 1303 1302 1318
3465 9 1301 1302 1318
3466 27 718 717 726
3467 27 716 717 718
3468 20 716 717 726
3469 20 1612 1613 1614
3470 9 1614 1613 1626
3471 9 1612 1613 1626
3472 20 1613 1614 1615
3473 9 1615 1614 1627
3474 9 1613 1614 1627
3475 20 722 724 725
3476 9 725 724 732
3477 9 722 724 732
3478 20 720 719 725
3479 27 718 719 720
3480 27 718 719 725
3481 23 723 722 724
3482 23 721 722 723
3483 20 721 722 724
3484 20 719 720 721
3485 9 721 720 730
3486 9 719 720 730
3487 20 720 721 722
3488 9 722 721 731
3489 9 720 721 731
3490 16 737 723 738
3491 17 722 723 737
3492 17 722 723 738
3493 25 736 737 756
3494 28 723 737 736
3495 22 723 737 756
3496 25 739 738 740
3497 28 723 738 739
3498 22 723 738 740
3499 20 2653 2652 2661
3500 27 2651 2652 2653
3501 27 2651 2652 2661
3502 20 2652 2661 2660
3503 9 2660 2661 2668
3504 9 2652 2661 2668
3505 22 2660 2658 2670
3506 25 2659 2658 2660
3507 28 2659 2658 2670
3508 18 2658 2660 2661
3509 18 2655 2660 2658
3510 20 2655 2660 2661
3511 17 2658 2670 2671
3512 17 2656 2670 2671
3513 16 2656 2670 2658
3514 20 717 726 727
3515 9 727 726 734
3516 9 717 726 734
3517 18 2656 2655 2660
3518 18 2654 2655 2656
3519 20 2654 2655 2660
3520 28 2657 2656 2670
3521 25 2655 2656 2657
3522 22 2655 2656 2670
3523 20 1617 1623 1622
3524 9 1622 1623 1631
3525 9 1617 1623 1631
3526 20 2092 2093 2094
3527 9 2094 2093 2106
3528 9 2092 2093 2106
3529 20 2652 2653 2654
3530 9 2654 2653 2666
3531 9 2652 2653 2666
3532 20 740 756 755
3533 18 737 756 755
3534 18 737 756 740
3535 20 715 716 717
3536 9 717 716 729
3537 9 715 716 729
3538 28 700 699 713
3539 25 698 699 700
3540 22 698 699 713
3541 20 714 715 716
3542 9 716 715 728
3543 9 714 715 728
3544 20 715 714 727
3545 23 713 714 715
3546 23 713 714 727
3547 20 1306 1305 1314
3548 27 1304 1305 1306
3549 27 1304 1305 1314
3550 18 1309 1308 1313
3551 18 1307 1308 1309
3552 20 1307 1308 1313
3553 19 1303 1304 1305
3554 26 1865 1864 1866
3555 26 1863 1864 1865
3556 20 1863 1864 1866
3557 20 696 697 698
3558 9 698 697 710
3559 9 696 697 710
3560 20 2653 2654 2655
3561 9 2655 2654 2667
3562 9 2653 2654 2667
3563 18 699 698 703
3564 18 697 698 699
3565 20 697 698 703
3566 11 1866 1867 1880
3567 20 1305 1306 1307
3568 9 1307 1306 1319
3569 9 1305 1306 1319
3570 26 1867 1866 1868
3571 26 1864 1866 1867
3572 20 1864 1866 1868
3573 20 693 705 706
3574 9 706 705 712
3575 9 693 705 712
3576 20 695 704 703
3577 9 703 704 711
3578 9 695 704 711
3579 20 714 727 726
3580 9 726 727 735
3581 9 714 727 735
3582 17 701 713 714
3583 17 699 713 714
3584 16 699 713 701
3585 22 703 701 713
3586 25 702 701 703
3587 28 702 701 713
3588 20 1861 1868 1866
3589 9 1866 1868 1881
3590 9 1861 1868 1881
3591 18 701 703 704
3592 18 698 703 701
3593 20 698 703 704
3594 20 696 695 704
3595 27 694 695 696
3596 27 694 695 704
3597 20 1306 1307 1308
3598 9 1308 1307 1320
3599 9 1306 1307 1320
3600 20 695 696 697
3601 9 697 696 709
3602 9 695 696 709
3603 20 1862 1861 1868
3604 15 1860 1861 1862
3605 15 1860 1861 1868
3606 19 429 430 431
3607 16 1884 1853 1885
3608 17 1852 1853 1884
3609 17 1852 1853 1885
3610 20 427 428 429
3611 9 429 428 441
3612 9 427 428 441
3613 20 142 143 144
3614 9 144 143 159
3615 9 142 143 159
3616 20 1862 1863 1864
3617 9 1864 1863 1878
3618 9 1862 1863 1878
3619 27 694 693 705
3620 27 692 693 694
3621 20 692 693 705
3622 19 693 694 695
3623 13 1859 1860 1861
3624 2 1875 1860 1876
3625 7 1861 1860 1875
3626 7 1861 1860 1876
3627 5 1859 1860 1875
3628 5 1859 1860 1876
3629 21 1858 1859 1860
3630 1 1873 1859 1874
3631 6 1860 1859 1873
3632 6 1860 1859 1874
3633 12 1858 1859 1873
3634 12 1858 1859 1874
3635 27 430 429 438
3636 27 428 429 430
3637 20 428 429 438
3638 20 141 142 143
3639 9 143 142 158
3640 9 141 142 158
3641 25 237 238 257
3642 28 224 238 237
3643 22 224 238 257
3644 20 429 438 439
3645 9 439 438 448
3646 9 429 438 448
3647 20 1852 1854 1855
3648 9 1855 1854 1871
3649 9 1852 1854 1871
3650 20 426 439 438
3651 9 438 439 449
3652 9 426 439 449
3653 14 1856 1858 1859
3654 4 1859 1858 1872
3655 8 1856 1858 1872
3656 20 1861 1862 1863
3657 9 1863 1862 1877
3658 9 1861 1862 1877
3659 20 241 257 256
3660 18 238 257 256
3661 18 238 257 241
3662 28 1857 1856 1858
3663 25 1855 1856 1857
3664 22 1855 1856 1858
3665 20 242 243 244
3666 9 244 243 259
3667 9 242 243 259
3668 27 245 244 256
3669 27 243 244 245
3670 20 243 244 256
3671 20 246 255 254
3672 9 254 255 262
3673 9 246 255 262
3674 20 244 256 257
3675 9 257 256 263
3676 9 244 256 263
3677 20 247 246 255
3678 27 245 246 247
3679 27 245 246 255
3680 19 244 245 246
3681 20 246 247 248
3682 9 248 247 260
3683 9 246 247 260
3684 20 247 248 249
3685 9 249 248 261
3686 9 247 248 261
3687 20 691 692 693
3688 9 693 692 708
3689 9 691 692 708
3690 18 252 254 255
3691 18 249 254 252
3692 20 249 254 255
3693 18 250 249 254
3694 18 248 249 250
3695 20 248 249 254
3696 25 1886 1885 1887
3697 28 1853 1885 1886
3698 22 1853 1885 1887
3699 20 2092 2101 2100
3700 9 2100 2101 2108
3701 9 2092 2101 2108
3702 27 269 268 277
3703 27 267 268 269
3704 20 267 268 277
3705 20 2093 2094 2095
3706 9 2095 2094 2107
3707 9 2093 2094 2107
3708 20 1892 1893 1894
3709 9 1894 1893 1906
3710 9 1892 1893 1906
3711 19 1890 1891 1892
3712 20 2112 2113 2114
3713 9 2114 2113 2126
3714 9 2112 2113 2126
3715 27 1891 1890 1902
3716 27 1889 1890 1891
3717 20 1889 1890 1902
3718 20 2487 2488 2489
3719 9 2489 2488 2504
3720 9 2487 2488 2504
3721 20 2486 2502 2501
3722 18 2483 2502 2501
3723 18 2483 2502 2486
3724 20 268 277 278
3725 9 278 277 285
3726 9 268 277 285
3727 20 266 267 268
3728 9 268 267 280
3729 9 266 267 280
3730 20 2112 2111 2124
3731 23 2110 2111 2112
3732 23 2110 2111 2124
3733 18 2098 2100 2101
3734 18 2095 2100 2098
3735 20 2095 2100 2101
3736 22 2100 2098 2110
3737 25 2099 2098 2100
3738 28 2099 2098 2110
3739 20 2486 2487 2488
3740 9 2488 2487 2503
3741 9 2486 2487 2503
3742 20 1888 1887 1903
3743 18 1885 1887 1888
3744 18 1885 1887 1903
3745 20 1888 1889 1890
3746 9 1890 1889 1905
3747 9 1888 1889 1905
3748 20 1887 1888 1889
3749 9 1889 1888 1904
3750 9 1887 1888 1904
3751 20 743 755 756
3752 9 756 755 762
3753 9 743 755 762
3754 22 254 252 264
3755 25 253 252 254
3756 28 253 252 264
3757 28 251 250 264
3758 25 249 250 251
3759 22 249 250 264
3760 17 252 264 265
3761 17 250 264 265
3762 16 250 264 252
3763 17 2098 2110 2111
3764 17 2096 2110 2111
3765 16 2096 2110 2098
3766 18 2096 2095 2100
3767 18 2094 2095 2096
3768 20 2094 2095 2100
3769 28 2097 2096 2110
3770 25 2095 2096 2097
3771 22 2095 2096 2110
3772 20 265 278 277
3773 9 277 278 286
3774 9 265 278 286
3775 20 266 265 278
3776 23 264 265 266
3777 23 264 265 278
3778 20 265 266 267
3779 9 267 266 279
3780 9 265 266 279
3781 20 2111 2112 2113
3782 9 2113 2112 2125
3783 9 2111 2112 2125
3784 20 2487 2486 2502
3785 18 2484 2486 2487
3786 18 2484 2486 2502
3787 25 2485 2484 2486
3788 28 2469 2484 2485
3789 22 2469 2484 2486
3790 16 2483 2469 2484
3791 17 2468 2469 2483
3792 17 2468 2469 2484
3793 25 1487 1486 1488
3794 28 1471 1486 1487
3795 22 1471 1486 1488
3796 20 1488 1489 1490
3797 9 1490 1489 1505
3798 9 1488 1489 1505
3799 3 1363 1348 1364
3800 10 1349 1348 1363
3801 10 1349 1348 1364
3802 20 1470 1472 1473
3803 9 1473 1472 1480
3804 9 1470 1472 1480
3805 20 1489 1488 1504
3806 18 1486 1488 1489
3807 18 1486 1488 1504
3808 20 1354 1355 1356
3809 9 1356 1355 1367
3810 9 1354 1355 1367
3811 20 1355 1354 1360
3812 27 1353 1354 1355
3813 27 1353 1354 1360
3814 20 1354 1360 1359
3815 9 1359 1360 1370
3816 9 1354 1360 1370
3817 19 1352 1353 1354
3818 16 1485 1471 1486
3819 17 1470 1471 1485
3820 17 1470 1471 1486
3821 23 1471 1470 1472
3822 23 1469 1470 1471
3823 20 1469 1470 1472
3824 20 1488 1504 1503
3825 18 1485 1504 1503
3826 18 1485 1504 1488
3827 27 1353 1352 1361
3828 27 1351 1352 1353
3829 20 1351 1352 1361
3830 20 1352 1361 1362
3831 9 1362 1361 1371
3832 9 1352 1361 1371
3833 20 1350 1351 1352
3834 9 1352 1351 1366
3835 9 1350 1351 1366
3836 20 1349 1362 1361
3837 9 1361 1362 1372
3838 9 1349 1362 1372
3839 20 1350 1349 1362
3840 24 1348 1349 1350
3841 24 1348 1349 1362
3842 20 1349 1350 1351
3843 9 1351 1350 1365
3844 9 1349 1350 1365
3845 20 1468 1469 1470
3846 9 1470 1469 1479
3847 9 1468 1469 1479
3848 20 1688 1689 1690
3849 9 1690 1689 1705
3850 9 1688 1689 1705
3851 25 1484 1485 1504
3852 28 1471 1485 1484
3853 22 1471 1485 1504
3854 20 1491 1503 1504
3855 9 1504 1503 1510
3856 9 1491 1503 1510
3857 20 1689 1690 1691
3858 9 1691 1690 1706
3859 9 1689 1690 1706
3860 20 1489 1490 1491
3861 9 1491 1490 1506
3862 9 1489 1490 1506
3863 27 1492 1491 1503
3864 27 1490 1491 1492
3865 20 1490 1491 1503
3866 22 1601 1599 1611
3867 25 1600 1599 1601
3868 28 1600 1599 1611
3869 25 1584 1585 1604
3870 28 1571 1585 1584
3871 22 1571 1585 1604
3872 20 2442 2443 2444
3873 9 2444 2443 2456
3874 9 2442 2443 2456
3875 20 2679 2681 2682
3876 9 2682 2681 2691
3877 9 2679 2681 2691
3878 28 2446 2445 2459
3879 25 2444 2445 2446
3880 22 2444 2445 2459
3881 18 2445 2444 2449
3882 18 2443 2444 2445
3883 20 2443 2444 2449
3884 22 1451 1449 1461
3885 25 1450 1449 1451
3886 28 1450 1449 1461
3887 22 1651 1649 1661
3888 25 1650 1649 1651
3889 28 1650 1649 1661
3890 20 2441 2442 2443
3891 9 2443 2442 2455
3892 9 2441 2442 2455
3893 20 1467 1468 1469
3894 9 1469 1468 1478
3895 9 1467 1468 1478
3896 23 1621 1620 1622
3897 23 1619 1620 1621
3898 20 1619 1620 1622
3899 20 1467 1473 1472
3900 9 1472 1473 1481
3901 9 1467 1473 1481
3902 20 1064 1065 1066
3903 9 1066 1065 1078
3904 9 1064 1065 1078
3905 20 1468 1467 1473
3906 27 1466 1467 1468
3907 27 1466 1467 1473
3908 19 1465 1466 1467
3909 17 1449 1461 1462
3910 17 1447 1461 1462
3911 16 1447 1461 1449
3912 20 1463 1462 1475
3913 23 1461 1462 1463
3914 23 1461 1462 1475
3915 20 1462 1463 1464
3916 9 1464 1463 1476
3917 9 1462 1463 1476
3918 20 1462 1475 1474
3919 9 1474 1475 1483
3920 9 1462 1475 1483
3921 20 1463 1464 1465
3922 9 1465 1464 1477
3923 9 1463 1464 1477
3924 20 1465 1474 1475
3925 9 1475 1474 1482
3926 9 1465 1474 1482
3927 27 1466 1465 1474
3928 27 1464 1465 1466
3929 20 1464 1465 1474
3930 28 1448 1447 1461
3931 25 1446 1447 1448
3932 22 1446 1447 1461
3933 25 1634 1635 1654
3934 28 1621 1635 1634
3935 22 1621 1635 1654
3936 3 2689 2680 2690
3937 10 2679 2680 2689
3938 10 2679 2680 2690
3939 18 1647 1646 1651
3940 18 1645 1646 1647
3941 20 1645 1646 1651
3942 27 1067 1066 1075
3943 27 1065 1066 1067
3944 20 1065 1066 1075
3945 19 1066 1067 1068
3946 20 1068 1074 1073
3947 9 1073 1074 1082
3948 9 1068 1074 1082
3949 18 1649 1651 1652
3950 18 1646 1651 1649
3951 20 1646 1651 1652
3952 20 1641 1653 1654
3953 9 1654 1653 1660
3954 9 1641 1653 1660
3955 20 1069 1068 1074
3956 27 1067 1068 1069
3957 27 1067 1068 1074
3958 20 1643 1652 1651
3959 9 1651 1652 1659
3960 9 1643 1652 1659
3961 20 1644 1643 1652
3962 27 1642 1643 1644
3963 27 1642 1643 1652
3964 19 1641 1642 1643
3965 24 2680 2679 2681
3966 24 2678 2679 2680
3967 20 2678 2679 2681
3968 20 1638 1654 1653
3969 18 1635 1654 1653
3970 18 1635 1654 1638
3971 27 1642 1641 1653
3972 27 1640 1641 1642
3973 20 1640 1641 1653
3974 18 1447 1446 1451
3975 18 1445 1446 1447
3976 20 1445 1446 1451
3977 20 1068 1069 1070
3978 9 1070 1069 1079
3979 9 1068 1069 1079
3980 20 1330 1329 1335
3981 27 1328 1329 1330
3982 27 1328 1329 1335
3983 20 1329 1330 1331
3984 9 1331 1330 1340
3985 9 1329 1330 1340
3986 20 1329 1335 1334
3987 9 1334 1335 1345
3988 9 1329 1335 1345
3989 20 1330 1331 1332
3990 9 1332 1331 1341
3991 9 1330 1331 1341
3992 20 1332 1334 1335
3993 9 1335 1334 1344
3994 9 1332 1334 1344
3995 24 1333 1332 1334
3996 24 1331 1332 1333
3997 20 1331 1332 1334
3998 3 1342 1333 1343
3999 10 1332 1333 1342
4000 10 1332 1333 1343
4001 20 1754 1755 1756
4002 9 1756 1755 1768
4003 9 1754 1755 1768
4004 20 1755 1756 1757
4005 9 1757 1756 1769
4006 9 1755 1756 1769
4007 20 1755 1754 1763
4008 27 1753 1754 1755
4009 27 1753 1754 1763
4010 18 1758 1757 1762
4011 18 1756 1757 1758
4012 20 1756 1757 1762
4013 20 1644 1645 1646
4014 9 1646 1645 1658
4015 9 1644 1645 1658
4016 20 1643 1644 1645
4017 9 1645 1644 1657
4018 9 1643 1644 1657
4019 20 1069 1070 1071
4020 9 1071 1070 1080
4021 9 1069 1070 1080
4022 20 1754 1763 1762
4023 9 1762 1763 1770
4024 9 1754 1763 1770
4025 28 1759 1758 1772
4026 25 1757 1758 1759
4027 22 1757 1758 1772
4028 18 1760 1762 1763
4029 18 1757 1762 1760
4030 20 1757 1762 1763
4031 25 1883 1884 1903
4032 28 1853 1884 1883
4033 22 1853 1884 1903
4034 20 1890 1902 1903
4035 9 1903 1902 1909
4036 9 1890 1902 1909
4037 20 1887 1903 1902
4038 18 1884 1903 1902
4039 18 1884 1903 1887
4040 18 1599 1601 1602
4041 18 1596 1601 1599
4042 20 1596 1601 1602
4043 18 1597 1596 1601
4044 18 1595 1596 1597
4045 20 1595 1596 1601
4046 20 1591 1603 1604
4047 9 1604 1603 1610
4048 9 1591 1603 1610
4049 19 1491 1492 1493
4050 28 1498 1497 1511
4051 25 1496 1497 1498
4052 22 1496 1497 1511
4053 22 1501 1499 1511
4054 25 1500 1499 1501
4055 28 1500 1499 1511
4056 17 1760 1772 1773
4057 17 1758 1772 1773
4058 16 1758 1772 1760
4059 20 1594 1595 1596
4060 9 1596 1595 1608
4061 9 1594 1595 1608
4062 22 1762 1760 1772
4063 25 1761 1760 1762
4064 28 1761 1760 1772
4065 20 1593 1594 1595
4066 9 1595 1594 1607
4067 9 1593 1594 1607
4068 20 1594 1593 1602
4069 27 1592 1593 1594
4070 27 1592 1593 1602
4071 19 1591 1592 1593
4072 20 1593 1602 1601
4073 9 1601 1602 1609
4074 9 1593 1602 1609
4075 18 1497 1496 1501
4076 18 1495 1496 1497
4077 20 1495 1496 1501
4078 20 1494 1495 1496
4079 9 1496 1495 1508
4080 9 1494 1495 1508
4081 20 1493 1494 1495
4082 9 1495 1494 1507
4083 9 1493 1494 1507
4084 18 1499 1501 1502
4085 18 1496 1501 1499
4086 20 1496 1501 1502
4087 20 1494 1493 1502
4088 27 1492 1493 1494
4089 27 1492 1493 1502
4090 20 1493 1502 1501
4091 9 1501 1502 1509
4092 9 1493 1502 1509
4093 20 1773 1774 1775
4094 9 1775 1774 1787
4095 9 1773 1774 1787
4096 27 1592 1591 1603
4097 27 1590 1591 1592
4098 20 1590 1591 1603
4099 20 1588 1604 1603
4100 18 1585 1604 1603
4101 18 1585 1604 1588
4102 20 994 1003 1002
4103 9 1002 1003 1010
4104 9 994 1003 1010
4105 18 1248 1247 1252
4106 18 1246 1247 1248
4107 20 1246 1247 1252
4108 18 1000 1002 1003
4109 18 997 1002 1000
4110 20 997 1002 1003
4111 18 998 997 1002
4112 18 996 997 998
4113 20 996 997 1002
4114 20 1245 1244 1253
4115 27 1243 1244 1245
4116 27 1243 1244 1253
4117 20 1245 1246 1247
4118 9 1247 1246 1259
4119 9 1245 1246 1259
4120 20 1244 1245 1246
4121 9 1246 1245 1258
4122 9 1244 1245 1258
4123 27 1017 1016 1025
4124 27 1015 1016 1017
4125 20 1015 1016 1025
4126 20 1694 1693 1702
4127 27 1692 1693 1694
4128 27 1692 1693 1702
4129 20 1693 1702 1701
4130 9 1701 1702 1709
4131 9 1693 1702 1709
4132 20 1693 1694 1695
4133 9 1695 1694 1707
4134 9 1693 1694 1707
4135 20 1694 1695 1696
4136 9 1696 1695 1708
4137 9 1694 1695 1708
4138 18 1697 1696 1701
4139 18 1695 1696 1697
4140 20 1695 1696 1701
4141 20 1014 1015 1016
4142 9 1016 1015 1028
4143 9 1014 1015 1028
4144 20 1013 1014 1015
4145 9 1015 1014 1027
4146 9 1013 1014 1027
4147 28 999 998 1012
4148 25 997 998 999
4149 22 997 998 1012
4150 17 1000 1012 1013
4151 17 998 1012 1013
4152 16 998 1012 1000
4153 22 1002 1000 1012
4154 25 1001 1000 1002
4155 28 1001 1000 1012
4156 20 1014 1013 1026
4157 23 1012 1013 1014
4158 23 1012 1013 1026
4159 20 1016 1025 1026
4160 9 1026 1025 1033
4161 9 1016 1025 1033
4162 20 1013 1026 1025
4163 9 1025 1026 1034
4164 9 1013 1026 1034
4165 18 1699 1701 1702
4166 18 1696 1701 1699
4167 20 1696 1701 1702
4168 28 1698 1697 1711
4169 25 1696 1697 1698
4170 22 1696 1697 1711
4171 20 1240 1241 1242
4172 9 1242 1241 1257
4173 9 1240 1241 1257
4174 20 1239 1240 1241
4175 9 1241 1240 1256
4176 9 1239 1240 1256
4177 25 1238 1237 1239
4178 28 1222 1237 1238
4179 22 1222 1237 1239
4180 16 986 955 987
4181 17 954 955 986
4182 17 954 955 987
4183 19 1242 1243 1244
4184 27 1243 1242 1254
4185 27 1241 1242 1243
4186 20 1241 1242 1254
4187 25 985 986 1005
4188 28 955 986 985
4189 22 955 986 1005
4190 14 958 960 961
4191 4 961 960 974
4192 8 958 960 974
4193 20 954 956 957
4194 9 957 956 973
4195 9 954 956 973
4196 28 959 958 960
4197 25 957 958 959
4198 22 957 958 960
4199 23 955 954 956
4200 23 953 954 955
4201 20 953 954 956
4202 20 1219 1220 1221
4203 9 1221 1220 1230
4204 9 1219 1220 1230
4205 18 958 957 971
4206 18 956 957 958
4207 20 956 957 971
4208 20 1239 1255 1254
4209 18 1236 1255 1254
4210 18 1236 1255 1239
4211 20 1240 1239 1255
4212 18 1237 1239 1240
4213 18 1237 1239 1255
4214 23 1222 1221 1223
4215 23 1220 1221 1222
4216 20 1220 1221 1223
4217 20 1242 1254 1255
4218 9 1255 1254 1261
4219 9 1242 1254 1261
4220 25 1235 1236 1255
4221 28 1222 1236 1235
4222 22 1222 1236 1255
4223 16 1236 1222 1237
4224 17 1221 1222 1236
4225 17 1221 1222 1237
4226 20 934 935 936
4227 9 936 935 948
4228 9 934 935 948
4229 18 937 936 941
4230 18 935 936 937
4231 20 935 936 941
4232 28 938 937 951
4233 25 936 937 938
4234 22 936 937 951
4235 18 939 941 942
4236 18 936 941 939
4237 20 936 941 942
4238 20 952 971 957
4239 9 957 971 984
4240 9 952 971 984
4241 20 952 953 954
4242 9 954 953 972
4243 9 952 953 972
4244 20 953 952 971
4245 23 951 952 953
4246 23 951 952 971
4247 17 939 951 952
4248 17 937 951 952
4249 16 937 951 939
4250 22 941 939 951
4251 25 940 939 941
4252 28 940 939 951
4253 22 1102 1100 1112
4254 25 1101 1100 1102
4255 28 1101 1100 1112
4256 19 1752 1753 1754
4257 20 1071 1073 1074
4258 9 1074 1073 1081
4259 9 1071 1073 1081
4260 23 1072 1071 1073
4261 23 1070 1071 1072
4262 20 1070 1071 1073
4263 16 1086 1072 1087
4264 17 1071 1072 1086
4265 17 1071 1072 1087
4266 25 1088 1087 1089
4267 28 1072 1087 1088
4268 22 1072 1087 1089
4269 25 1085 1086 1105
4270 28 1072 1086 1085
4271 22 1072 1086 1105
4272 20 1089 1105 1104
4273 18 1086 1105 1104
4274 18 1086 1105 1089
4275 20 1092 1104 1105
4276 9 1105 1104 1111
4277 9 1092 1104 1111
4278 20 1090 1089 1105
4279 18 1087 1089 1090
4280 18 1087 1089 1105
4281 19 1092 1093 1094
4282 27 1093 1092 1104
4283 27 1091 1092 1093
4284 20 1091 1092 1104
4285 20 1089 1090 1091
4286 9 1091 1090 1106
4287 9 1089 1090 1106
4288 20 1090 1091 1092
4289 9 1092 1091 1107
4290 9 1090 1091 1107
4291 27 1753 1752 1764
4292 27 1751 1752 1753
4293 20 1751 1752 1764
4294 20 1750 1751 1752
4295 9 1752 1751 1767
4296 9 1750 1751 1767
4297 20 1094 1103 1102
4298 9 1102 1103 1110
4299 9 1094 1103 1110
4300 20 1095 1094 1103
4301 27 1093 1094 1095
4302 27 1093 1094 1103
4303 18 1100 1102 1103
4304 18 1097 1102 1100
4305 20 1097 1102 1103
4306 17 1699 1711 1712
4307 17 1697 1711 1712
4308 16 1697 1711 1699
4309 22 1701 1699 1711
4310 25 1700 1699 1701
4311 28 1700 1699 1711
4312 20 1752 1764 1765
4313 9 1765 1764 1771
4314 9 1752 1764 1771
4315 20 1749 1765 1764
4316 18 1746 1765 1764
4317 18 1746 1765 1749
4318 25 1745 1746 1765
4319 28 1715 1746 1745
4320 22 1715 1746 1765
4321 20 1749 1750 1751
4322 9 1751 1750 1766
4323 9 1749 1750 1766
4324 18 1200 1202 1203
4325 18 1197 1202 1200
4326 20 1197 1202 1203
4327 20 1714 1716 1717
4328 9 1717 1716 1733
4329 9 1714 1716 1733
4330 18 1718 1717 1731
4331 18 1716 1717 1718
4332 20 1716 1717 1731
4333 16 1186 1172 1187
4334 17 1171 1172 1186
4335 17 1171 1172 1187
4336 25 1188 1187 1189
4337 28 1172 1187 1188
4338 22 1172 1187 1189
4339 20 1750 1749 1765
4340 18 1747 1749 1750
4341 18 1747 1749 1765
4342 20 1713 1712 1731
4343 23 1711 1712 1713
4344 23 1711 1712 1731
4345 20 1712 1731 1717
4346 9 1717 1731 1744
4347 9 1712 1731 1744
4348 25 1748 1747 1749
4349 28 1715 1747 1748
4350 22 1715 1747 1749
4351 20 1712 1713 1714
4352 9 1714 1713 1732
4353 9 1712 1713 1732
4354 23 1715 1714 1716
4355 23 1713 1714 1715
4356 20 1713 1714 1716
4357 16 1746 1715 1747
4358 17 1714 1715 1746
4359 17 1714 1715 1747
4360 20 1195 1194 1203
4361 27 1193 1194 1195
4362 27 1193 1194 1203
4363 19 1192 1193 1194
4364 20 1194 1203 1202
4365 9 1202 1203 1210
4366 9 1194 1203 1210
4367 20 1190 1191 1192
4368 9 1192 1191 1207
4369 9 1190 1191 1207
4370 27 1193 1192 1204
4371 27 1191 1192 1193
4372 20 1191 1192 1204
4373 20 1192 1204 1205
4374 9 1205 1204 1211
4375 9 1192 1204 1211
4376 25 1185 1186 1205
4377 28 1172 1186 1185
4378 22 1172 1186 1205
4379 20 1190 1189 1205
4380 18 1187 1189 1190
4381 18 1187 1189 1205
4382 20 1189 1205 1204
4383 18 1186 1205 1204
4384 18 1186 1205 1189
4385 20 1189 1190 1191
4386 9 1191 1190 1206
4387 9 1189 1190 1206
4388 20 2586 2602 2601
4389 18 2583 2602 2601
4390 18 2583 2602 2586
4391 13 512 513 514
4392 2 528 513 529
4393 7 514 513 528
4394 7 514 513 529
4395 5 512 513 528
4396 5 512 513 529
4397 22 1202 1200 1212
4398 25 1201 1200 1202
4399 28 1201 1200 1212
4400 20 1216 1225 1226
4401 9 1226 1225 1233
4402 9 1216 1225 1233
4403 20 1213 1226 1225
4404 9 1225 1226 1234
4405 9 1213 1226 1234
4406 25 2585 2584 2586
4407 28 2569 2584 2585
4408 22 2569 2584 2586
4409 20 2589 2601 2602
4410 9 2602 2601 2608
4411 9 2589 2601 2608
4412 18 2397 2399 2400
4413 18 2394 2399 2397
4414 20 2394 2399 2400
4415 17 2397 2409 2410
4416 17 2395 2409 2410
4417 16 2395 2409 2397
4418 20 515 514 521
4419 15 513 514 515
4420 15 513 514 521
4421 20 2587 2586 2602
4422 18 2584 2586 2587
4423 18 2584 2586 2602
4424 28 2596 2595 2609
4425 25 2594 2595 2596
4426 22 2594 2595 2609
4427 18 2595 2594 2599
4428 18 2593 2594 2595
4429 20 2593 2594 2599
4430 17 2597 2609 2610
4431 17 2595 2609 2610
4432 16 2595 2609 2597
4433 18 2597 2599 2600
4434 18 2594 2599 2597
4435 20 2594 2599 2600
4436 22 2599 2597 2609
4437 25 2598 2597 2599
4438 28 2598 2597 2609
4439 20 2592 2593 2594
4440 9 2594 2593 2606
4441 9 2592 2593 2606
4442 20 2591 2600 2599
4443 9 2599 2600 2607
4444 9 2591 2600 2607
4445 20 514 521 519
4446 9 519 521 534
4447 9 514 521 534
4448 20 2591 2592 2593
4449 9 2593 2592 2605
4450 9 2591 2592 2605
4451 26 520 519 521
4452 26 517 519 520
4453 20 517 519 521
4454 20 2391 2400 2399
4455 9 2399 2400 2407
4456 9 2391 2400 2407
4457 11 519 520 533
4458 22 2399 2397 2409
4459 25 2398 2397 2399
4460 28 2398 2397 2409
4461 20 2586 2587 2588
4462 9 2588 2587 2603
4463 9 2586 2587 2603
4464 20 2592 2591 2600
4465 27 2590 2591 2592
4466 27 2590 2591 2600
4467 20 2587 2588 2589
4468 9 2589 2588 2604
4469 9 2587 2588 2604
4470 27 2590 2589 2601
4471 27 2588 2589 2590
4472 20 2588 2589 2601
4473 20 2411 2410 2423
4474 23 2409 2410 2411
4475 23 2409 2410 2423
4476 19 2589 2590 2591
4477 20 2410 2423 2422
4478 9 2422 2423 2431
4479 9 2410 2423 2431
4480 20 2410 2411 2412
4481 9 2412 2411 2424
4482 9 2410 2411 2424
4483 20 2413 2422 2423
4484 9 2423 2422 2430
4485 9 2413 2422 2430
4486 20 1113 1126 1125
4487 9 1125 1126 1134
4488 9 1113 1126 1134
4489 20 1221 1223 1224
4490 9 1224 1223 1231
4491 9 1221 1223 1231
4492 20 1218 1224 1223
4493 9 1223 1224 1232
4494 9 1218 1224 1232
4495 27 2414 2413 2422
4496 27 2412 2413 2414
4497 20 2412 2413 2422
4498 20 2411 2412 2413
4499 9 2413 2412 2425
4500 9 2411 2412 2425
4501 19 2413 2414 2415
4502 20 2415 2416 2417
4503 9 2417 2416 2426
4504 9 2415 2416 2426
4505 20 2416 2415 2421
4506 27 2414 2415 2416
4507 27 2414 2415 2421
4508 20 2416 2417 2418
4509 9 2418 2417 2427
4510 9 2416 2417 2427
4511 17 1100 1112 1113
4512 17 1098 1112 1113
4513 16 1098 1112 1100
4514 11 70 71 84
4515 20 66 67 68
4516 9 68 67 82
4517 9 66 67 82
4518 26 71 70 72
4519 26 68 70 71
4520 20 68 70 72
4521 18 1098 1097 1102
4522 18 1096 1097 1098
4523 20 1096 1097 1102
4524 20 1094 1095 1096
4525 9 1096 1095 1108
4526 9 1094 1095 1108
4527 20 1095 1096 1097
4528 9 1097 1096 1109
4529 9 1095 1096 1109
4530 20 2516 2517 2518
4531 9 2518 2517 2527
4532 9 2516 2517 2527
4533 19 2513 2514 2515
4534 20 2516 2515 2521
4535 27 2514 2515 2516
4536 27 2514 2515 2521
4537 28 1099 1098 1112
4538 25 1097 1098 1099
4539 22 1097 1098 1112
4540 20 65 72 70
4541 9 70 72 85
4542 9 65 72 85
4543 20 66 65 72
4544 15 64 65 66
4545 15 64 65 72
4546 18 60 59 73
4547 18 58 59 60
4548 20 58 59 73
4549 20 56 58 59
4550 9 59 58 75
4551 9 56 58 75
4552 20 65 66 67
4553 9 67 66 81
4554 9 65 66 81
4555 28 61 60 62
4556 25 59 60 61
4557 22 59 60 62
4558 13 63 64 65
4559 2 79 64 80
4560 7 65 64 79
4561 7 65 64 80
4562 5 63 64 79
4563 5 63 64 80
4564 21 62 63 64
4565 1 77 63 78
4566 6 64 63 77
4567 6 64 63 78
4568 12 62 63 77
4569 12 62 63 78
4570 14 60 62 63
4571 4 63 62 76
4572 8 60 62 76
4573 20 2515 2516 2517
4574 9 2517 2516 2526
4575 9 2515 2516 2526
4576 20 2518 2520 2521
4577 9 2521 2520 2528
4578 9 2518 2520 2528
4579 20 2366 2365 2371
4580 27 2364 2365 2366
4581 27 2364 2365 2371
4582 20 2513 2522 2523
4583 9 2523 2522 2530
4584 9 2513 2522 2530
4585 27 2514 2513 2522
4586 27 2512 2513 2514
4587 20 2512 2513 2522
4588 20 2515 2521 2520
4589 9 2520 2521 2529
4590 9 2515 2521 2529
4591 20 514 515 516
4592 9 516 515 530
4593 9 514 515 530
4594 28 2496 2495 2509
4595 25 2494 2495 2496
4596 22 2494 2495 2509
4597 11 517 518 532
4598 26 518 517 519
4599 26 516 517 518
4600 20 516 517 519
4601 20 2510 2523 2522
4602 9 2522 2523 2531
4603 9 2510 2523 2531
4604 20 515 516 517
4605 9 517 516 531
4606 9 515 516 531
4607 20 2387 2388 2389
4608 9 2389 2388 2404
4609 9 2387 2388 2404
4610 27 2390 2389 2401
4611 27 2388 2389 2390
4612 20 2388 2389 2401
4613 20 2389 2401 2402
4614 9 2402 2401 2408
4615 9 2389 2401 2408
4616 20 2368 2370 2371
4617 9 2371 2370 2378
4618 9 2368 2370 2378
4619 20 2365 2371 2370
4620 9 2370 2371 2379
4621 9 2365 2371 2379
4622 20 2365 2366 2367
4623 9 2367 2366 2376
4624 9 2365 2366 2376
4625 20 2511 2512 2513
4626 9 2513 2512 2525
4627 9 2511 2512 2525
4628 20 2386 2387 2388
4629 9 2388 2387 2403
4630 9 2386 2387 2403
4631 20 2387 2386 2402
4632 18 2384 2386 2387
4633 18 2384 2386 2402
4634 25 2385 2384 2386
4635 28 2369 2384 2385
4636 22 2369 2384 2386
4637 17 2497 2509 2510
4638 17 2495 2509 2510
4639 16 2495 2509 2497
4640 20 2511 2510 2523
4641 23 2509 2510 2511
4642 23 2509 2510 2523
4643 20 2510 2511 2512
4644 9 2512 2511 2524
4645 9 2510 2511 2524
4646 23 2369 2368 2370
4647 23 2367 2368 2369
4648 20 2367 2368 2370
4649 20 2366 2367 2368
4650 9 2368 2367 2377
4651 9 2366 2367 2377
4652 22 2499 2497 2509
4653 25 2498 2497 2499
4654 28 2498 2497 2509
4655 16 2383 2369 2384
4656 17 2368 2369 2383
4657 17 2368 2369 2384
4658 20 2386 2402 2401
4659 18 2383 2402 2401
4660 18 2383 2402 2386
4661 25 2382 2383 2402
4662 28 2369 2383 2382
4663 22 2369 2383 2402
4664 20 2676 2682 2681
4665 9 2681 2682 2692
4666 9 2676 2682 2692
4667 16 1585 1571 1586
4668 17 1570 1571 1585
4669 17 1570 1571 1586
4670 20 2672 2671 2684
4671 23 2670 2671 2672
4672 23 2670 2671 2684
4673 20 2671 2672 2673
4674 9 2673 2672 2685
4675 9 2671 2672 2685
4676 20 2466 2467 2468
4677 9 2468 2467 2477
4678 9 2466 2467 2477
4679 23 2256 2255 2257
4680 23 2254 2255 2256
4681 20 2254 2255 2257
4682 25 2274 2273 2275
4683 28 2256 2273 2274
4684 22 2256 2273 2275
4685 20 2275 2276 2277
4686 9 2277 2276 2292
4687 9 2275 2276 2292
4688 16 2272 2256 2273
4689 17 2255 2256 2272
4690 17 2255 2256 2273
4691 20 2276 2275 2291
4692 18 2273 2275 2276
4693 18 2273 2275 2291
4694 20 2275 2291 2290
4695 18 2272 2291 2290
4696 18 2272 2291 2275
4697 25 2271 2272 2291
4698 28 2256 2272 2271
4699 22 2256 2272 2291
4700 20 2278 2290 2291
4701 9 2291 2290 2297
4702 9 2278 2290 2297
4703 17 2447 2459 2460
4704 17 2445 2459 2460
4705 16 2445 2459 2447
4706 20 2461 2460 2473
4707 23 2459 2460 2461
4708 23 2459 2460 2473
4709 20 2460 2473 2472
4710 9 2472 2473 2481
4711 9 2460 2473 2481
4712 20 2460 2461 2462
4713 9 2462 2461 2474
4714 9 2460 2461 2474
4715 20 2461 2462 2463
4716 9 2463 2462 2475
4717 9 2461 2462 2475
4718 22 2449 2447 2459
4719 25 2448 2447 2449
4720 28 2448 2447 2459
4721 20 2672 2673 2674
4722 9 2674 2673 2686
4723 9 2672 2673 2686
4724 20 2463 2472 2473
4725 9 2473 2472 2480
4726 9 2463 2472 2480
4727 27 2464 2463 2472
4728 27 2462 2463 2464
4729 20 2462 2463 2472
4730 20 2465 2466 2467
4731 9 2467 2466 2476
4732 9 2465 2466 2476
4733 19 2463 2464 2465
4734 18 2447 2449 2450
4735 18 2444 2449 2447
4736 20 2444 2449 2450
4737 20 2276 2277 2278
4738 9 2278 2277 2293
4739 9 2276 2277 2293
4740 27 2279 2278 2290
4741 27 2277 2278 2279
4742 20 2277 2278 2290
4743 20 2466 2465 2471
4744 27 2464 2465 2466
4745 27 2464 2465 2471
4746 27 2675 2674 2683
4747 27 2673 2674 2675
4748 20 2673 2674 2683
4749 19 2674 2675 2676
4750 19 2278 2279 2280
4751 20 2280 2289 2288
4752 9 2288 2289 2296
4753 9 2280 2289 2296
4754 20 2677 2676 2682
4755 27 2675 2676 2677
4756 27 2675 2676 2682
4757 20 2281 2280 2289
4758 27 2279 2280 2281
4759 27 2279 2280 2289
4760 20 2674 2683 2684
4761 9 2684 2683 2693
4762 9 2674 2683 2693
4763 20 2671 2684 2683
4764 9 2683 2684 2694
4765 9 2671 2684 2694
4766 20 2441 2450 2449
4767 9 2449 2450 2457
4768 9 2441 2450 2457
4769 20 2437 2436 2452
4770 18 2434 2436 2437
4771 18 2434 2436 2452
4772 16 1635 1621 1636
4773 17 1620 1621 1635
4774 17 1620 1621 1636
4775 20 2415 2421 2420
4776 9 2420 2421 2429
4777 9 2415 2421 2429
4778 20 2280 2281 2282
4779 9 2282 2281 2294
4780 9 2280 2281 2294
4781 25 2435 2434 2436
4782 28 2419 2434 2435
4783 22 2419 2434 2436
4784 20 1620 1622 1623
4785 9 1623 1622 1630
4786 9 1620 1622 1630
4787 23 2419 2418 2420
4788 23 2417 2418 2419
4789 20 2417 2418 2420
4790 20 1639 1638 1654
4791 18 1636 1638 1639
4792 18 1636 1638 1654
4793 20 1639 1640 1641
4794 9 1641 1640 1656
4795 9 1639 1640 1656
4796 20 2676 2677 2678
4797 9 2678 2677 2687
4798 9 2676 2677 2687
4799 20 2677 2678 2679
4800 9 2679 2678 2688
4801 9 2677 2678 2688
4802 25 1637 1636 1638
4803 28 1621 1636 1637
4804 22 1621 1636 1638
4805 20 1638 1639 1640
4806 9 1640 1639 1655
4807 9 1638 1639 1655
4808 20 2418 2420 2421
4809 9 2421 2420 2428
4810 9 2418 2420 2428
4811 20 2439 2451 2452
4812 9 2452 2451 2458
4813 9 2439 2451 2458
4814 20 2436 2452 2451
4815 18 2433 2452 2451
4816 18 2433 2452 2436
4817 16 2433 2419 2434
4818 17 2418 2419 2433
4819 17 2418 2419 2434
4820 25 2432 2433 2452
4821 28 2419 2433 2432
4822 22 2419 2433 2452
4823 16 88 57 89
4824 17 56 57 88
4825 17 56 57 89
4826 25 90 89 91
4827 28 57 89 90
4828 22 57 89 91
4829 20 92 91 107
4830 18 89 91 92
4831 18 89 91 107
4832 20 91 107 106
4833 18 88 107 106
4834 18 88 107 91
4835 20 91 92 93
4836 9 93 92 108
4837 9 91 92 108
4838 20 2248 2247 2260
4839 24 2246 2247 2248
4840 24 2246 2247 2260
4841 20 2253 2254 2255
4842 9 2255 2254 2266
4843 9 2253 2254 2266
4844 20 2247 2248 2249
4845 9 2249 2248 2263
4846 9 2247 2248 2263
4847 20 2248 2249 2250
4848 9 2250 2249 2264
4849 9 2248 2249 2264
4850 20 2252 2253 2254
4851 9 2254 2253 2265
4852 9 2252 2253 2265
4853 20 2255 2257 2258
4854 9 2258 2257 2267
4855 9 2255 2257 2267
4856 25 2482 2483 2502
4857 28 2469 2483 2482
4858 22 2469 2483 2502
4859 25 1587 1586 1588
4860 28 1571 1586 1587
4861 22 1571 1586 1588
4862 20 2250 2259 2260
4863 9 2260 2259 2269
4864 9 2250 2259 2269
4865 27 2251 2250 2259
4866 27 2249 2250 2251
4867 20 2249 2250 2259
4868 20 1589 1588 1604
4869 18 1586 1588 1589
4870 18 1586 1588 1604
4871 20 92 93 94
4872 9 94 93 109
4873 9 92 93 109
4874 23 2469 2468 2470
4875 23 2467 2468 2469
4876 20 2467 2468 2470
4877 20 94 106 107
4878 9 107 106 113
4879 9 94 106 113
4880 19 94 95 96
4881 27 95 94 106
4882 27 93 94 95
4883 20 93 94 106
4884 20 2253 2252 2258
4885 27 2251 2252 2253
4886 27 2251 2252 2258
4887 19 2250 2251 2252
4888 20 2252 2258 2257
4889 9 2257 2258 2268
4890 9 2252 2258 2268
4891 20 2468 2470 2471
4892 9 2471 2470 2478
4893 9 2468 2470 2478
4894 20 2465 2471 2470
4895 9 2470 2471 2479
4896 9 2465 2471 2479
4897 20 1589 1590 1591
4898 9 1591 1590 1606
4899 9 1589 1590 1606
4900 20 1588 1589 1590
4901 9 1590 1589 1605
4902 9 1588 1589 1605

Dihedrals

1 17 1377 1393 1392 1380
2 17 1374 1393 1392 1380
3 17 1374 1393 1377 1375
4 17 1374 1393 1377 1378
5 17 1377 1393 1392 1399
6 17 1374 1393 1392 1399
7 17 1378 1377 1393 1392
8 17 1375 1377 1378 1379
9 17 1375 1377 1393 1392
10 17 1393 1377 1378 1394
11 17 1375 1377 1378 1394
12 8 1376 1375 1377 1378
13 8 1376 1375 1377 1393
14 12 1358 1375 1377 1378
15 12 1358 1375 1377 1393
16 17 1379 1378 1377 1393
17 17 1377 1378 1379 1380
18 17 1394 1378 1379 1395
19 17 1377 1378 1379 1395
20 17 1378 1379 1380 1381
21 17 1378 1379 1380 1392
22 17 1380 1379 1378 1394
23 17 1564 1563 1562 1575
24 17 1562 1563 1564 1565
25 17 1576 1563 1564 1577
26 17 1562 1563 1564 1577
27 8 1373 1374 1393 1392
28 8 1373 1374 1393 1377
29 16 1373 1374 1358 1375
30 12 1358 1374 1393 1392
31 12 1358 1374 1393 1377
32 16 1375 1358 1374 1393
33 16 1374 1358 1375 1376
34 16 1374 1358 1375 1377
35 16 1357 1358 1374 1373
36 16 1357 1358 1374 1393
37 16 1357 1358 1375 1376
38 16 1357 1358 1375 1377
39 16 1686 1671 1685 1704
40 16 1685 1671 1686 1687
41 16 1685 1671 1686 1688
42 16 1670 1671 1685 1684
43 16 1670 1671 1685 1704
44 16 1670 1671 1686 1687
45 16 1670 1671 1686 1688
46 8 1687 1686 1688 1689
47 8 1687 1686 1688 1704
48 12 1671 1686 1688 1689
49 12 1671 1686 1688 1704
50 11 1359 1357 1358 1374
51 11 1359 1357 1358 1375
52 17 1358 1357 1359 1360
53 11 1356 1357 1358 1374
54 11 1356 1357 1358 1375
55 17 1356 1357 1359 1360
56 17 1359 1357 1356 1368
57 17 1358 1357 1356 1368
58 17 1358 1357 1359 1369
59 17 1356 1357 1359 1369
60 17 1381 1380 1392 1393
61 10 1379 1380 1381 1382
62 17 1379 1380 1392 1393
63 17 1392 1380 1379 1395
64 17 1381 1380 1379 1395
65 17 1381 1380 1392 1399
66 17 1379 1380 1392 1399
67 17 1689 1688 1704 1703
68 17 1686 1688 1689 1690
69 17 1686 1688 1704 1703
70 17 1704 1688 1689 1705
71 17 1686 1688 1689 1705
72 8 1684 1685 1704 1703
73 8 1684 1685 1704 1688
74 16 1684 1685 1671 1686
75 12 1671 1685 1704 1703
76 12 1671 1685 1704 1688
77 17 1688 1704 1703 1691
78 17 1685 1704 1703 1691
79 17 1685 1704 1688 1686
80 17 1685 1704 1688 1689
81 17 1688 1704 1703 1710
82 17 1685 1704 1703 1710
83 17 1382 1391 1390 1388
84 17 1382 1391 1390 1385
85 17 1369 1359 1360 1370
86 17 1357 1359 1360 1370
87 17 1563 1562 1575 1574
88 17 1561 1562 1563 1564
89 17 1561 1562 1575 1574
90 17 1575 1562 1563 1576
91 17 1563 1562 1575 1583
92 17 1561 1562 1563 1576
93 17 1561 1562 1575 1583
94 17 1355 1356 1357 1358
95 17 1355 1356 1357 1359
96 17 1357 1356 1355 1367
97 10 1382 1381 1380 1392
98 10 1380 1381 1382 1383
99 10 1380 1381 1382 1391
100 11 1672 1670 1671 1685
101 11 1672 1670 1671 1686
102 17 1671 1670 1672 1673
103 11 1669 1670 1671 1685
104 11 1669 1670 1671 1686
105 17 1669 1670 1672 1673
106 17 1672 1670 1669 1679
107 17 1671 1670 1669 1679
108 17 1671 1670 1672 1680
109 17 1669 1670 1672 1680
110 17 1680 1672 1673 1681
111 17 1670 1672 1673 1681
112 17 1563 1564 1565 1566
113 17 1563 1564 1565 1574
114 17 1565 1564 1563 1576
115 17 1668 1669 1670 1671
116 17 1668 1669 1670 1672
117 17 1670 1669 1668 1678
118 17 1667 1673 1672 1670
119 17 1667 1673 1672 1680
120 17 1668 1667 1673 1672
121 17 1666 1667 1668 1669
122 17 1666 1667 1673 1672
123 17 1673 1667 1668 1678
124 17 1668 1667 1673 1681
125 17 1666 1667 1668 1678
126 17 1666 1667 1673 1681
127 17 1669 1668 1667 1673
128 17 1667 1668 1669 1670
129 17 1678 1668 1669 1679
130 17 1667 1668 1669 1679
131 17 1682 1674 1675 1683
132 17 1665 1674 1675 1683
133 17 1666 1665 1674 1675
134 10 1664 1665 1666 1667
135 17 1664 1665 1674 1675
136 17 1674 1665 1664 1677
137 17 1666 1665 1664 1677
138 17 1666 1665 1674 1682
139 17 1664 1665 1674 1682
140 10 1667 1666 1665 1674
141 10 1665 1666 1667 1668
142 10 1665 1666 1667 1673
143 17 1663 1662 1675 1674
144 17 1661 1662 1663 1664
145 17 1661 1662 1675 1674
146 17 1675 1662 1663 1676
147 17 1663 1662 1675 1683
148 17 1661 1662 1663 1676
149 17 1661 1662 1675 1683
150 17 1662 1675 1674 1665
151 17 1662 1675 1674 1682
152 11 1649 1661 1662 1663
153 11 1649 1661 1662 1675
154 11 1647 1661 1662 1663
155 11 1647 1661 1662 1675
156 16 1647 1661 1649 1650
157 16 1647 1661 1649 1651
158 8 1434 1435 1454 1453
159 8 1434 1435 1454 1438
160 16 1434 1435 1404 1436
161 12 1404 1435 1454 1453
162 12 1404 1435 1454 1438
163 17 1438 1454 1453 1441
164 17 1435 1454 1453 1441
165 17 1435 1454 1438 1436
166 17 1435 1454 1438 1439
167 17 1438 1454 1453 1460
168 17 1435 1454 1453 1460
169 17 1440 1439 1438 1454
170 17 1438 1439 1440 1441
171 17 1455 1439 1440 1456
172 17 1438 1439 1440 1456
173 17 1439 1438 1454 1453
174 17 1436 1438 1439 1440
175 17 1436 1438 1454 1453
176 17 1454 1438 1439 1455
177 17 1436 1438 1439 1455
178 17 1443 1452 1451 1449
179 17 1443 1452 1451 1446
180 12 1452 1451 1449 1461
181 8 1446 1451 1449 1450
182 12 1446 1451 1449 1461
183 17 1449 1451 1452 1459
184 17 1446 1451 1452 1459
185 17 1439 1440 1441 1442
186 17 1439 1440 1441 1453
187 17 1441 1440 1439 1455
188 17 2018 2017 2016 2022
189 17 2016 2017 2018 2019
190 17 2027 2017 2018 2028
191 17 2016 2017 2018 2028
192 17 2017 2018 2019 2020
193 17 2017 2018 2019 2021
194 17 2019 2018 2017 2027
195 11 2021 2019 2020 2034
196 11 2021 2019 2020 2035
197 17 2020 2019 2021 2022
198 11 2018 2019 2020 2034
199 11 2018 2019 2020 2035
200 17 2018 2019 2021 2022
201 17 2021 2019 2018 2028
202 17 2020 2019 2018 2028
203 17 2020 2019 2021 2029
204 17 2018 2019 2021 2029
205 8 1648 1647 1646 1651
206 16 1648 1647 1661 1662
207 16 1648 1647 1661 1649
208 16 1646 1647 1661 1662
209 16 1646 1647 1661 1649
210 17 1663 1664 1665 1666
211 17 1663 1664 1665 1674
212 17 1665 1664 1663 1676
213 17 1664 1663 1662 1675
214 17 1662 1663 1664 1665
215 17 1676 1663 1664 1677
216 17 1662 1663 1664 1677
217 17 1442 1441 1453 1454
218 10 1440 1441 1442 1443
219 17 1440 1441 1453 1454
220 17 1453 1441 1440 1456
221 17 1442 1441 1440 1456
222 17 1442 1441 1453 1460
223 17 1440 1441 1453 1460
224 8 1437 1436 1438 1439
225 8 1437 1436 1438 1454
226 12 1404 1436 1438 1439
227 12 1404 1436 1438 1454
228 17 1444 1443 1452 1451
229 17 1442 1443 1444 1445
230 17 1442 1443 1452 1451
231 17 1452 1443 1444 1457
232 17 1444 1443 1452 1459
233 17 1442 1443 1444 1457
234 17 1442 1443 1452 1459
235 10 1443 1442 1441 1453
236 10 1441 1442 1443 1444
237 10 1441 1442 1443 1452
238 17 1445 1444 1443 1452
239 17 1443 1444 1445 1446
240 17 1457 1444 1445 1458
241 17 1443 1444 1445 1458
242 8 2208 2207 2206 2211
243 16 2208 2207 2221 2222
244 16 2208 2207 2221 2209
245 16 2206 2207 2221 2222
246 16 2206 2207 2221 2209
247 16 2035 2020 2034 2053
248 16 2034 2020 2035 2036
249 16 2034 2020 2035 2037
250 16 2019 2020 2034 2033
251 16 2019 2020 2034 2053
252 16 2019 2020 2035 2036
253 16 2019 2020 2035 2037
254 11 2209 2221 2222 2223
255 11 2209 2221 2222 2235
256 11 2207 2221 2222 2223
257 11 2207 2221 2222 2235
258 16 2207 2221 2209 2210
259 16 2207 2221 2209 2211
260 17 2037 2053 2052 2040
261 17 2034 2053 2052 2040
262 17 2034 2053 2037 2035
263 17 2034 2053 2037 2038
264 17 2037 2053 2052 2059
265 17 2034 2053 2052 2059
266 12 2211 2206 2207 2221
267 17 2207 2206 2211 2209
268 17 2207 2206 2211 2212
269 8 2205 2206 2207 2208
270 12 2205 2206 2207 2221
271 17 2205 2206 2211 2209
272 17 2205 2206 2211 2212
273 17 2211 2206 2205 2218
274 17 2207 2206 2205 2218
275 8 2033 2034 2053 2052
276 8 2033 2034 2053 2037
277 16 2033 2034 2020 2035
278 12 2020 2034 2053 2052
279 12 2020 2034 2053 2037
280 17 2041 2040 2052 2053
281 10 2039 2040 2041 2042
282 17 2039 2040 2052 2053
283 17 2052 2040 2039 2055
284 17 2041 2040 2039 2055
285 17 2041 2040 2052 2059
286 17 2039 2040 2052 2059
287 17 1938 1939 1940 1941
288 17 1938 1939 1940 1952
289 17 1940 1939 1938 1954
290 17 2204 2205 2206 2207
291 17 2204 2205 2206 2211
292 17 2206 2205 2204 2217
293 10 2042 2041 2040 2052
294 10 2040 2041 2042 2043
295 10 2040 2041 2042 2051
296 17 2043 2042 2051 2050
297 17 2041 2042 2043 2044
298 17 2041 2042 2051 2050
299 17 2051 2042 2043 2056
300 17 2043 2042 2051 2058
301 17 2041 2042 2043 2056
302 17 2041 2042 2051 2058
303 17 2042 2051 2050 2048
304 17 2042 2051 2050 2045
305 17 2044 2043 2042 2051
306 17 2042 2043 2044 2045
307 17 2056 2043 2044 2057
308 17 2042 2043 2044 2057
309 12 2051 2050 2048 2060
310 8 2045 2050 2048 2049
311 12 2045 2050 2048 2060
312 17 2048 2050 2051 2058
313 17 2045 2050 2051 2058
314 17 2043 2044 2045 2046
315 17 2043 2044 2045 2050
316 17 2045 2044 2043 2056
317 17 2038 2037 2053 2052
318 17 2035 2037 2038 2039
319 17 2035 2037 2053 2052
320 17 2053 2037 2038 2054
321 17 2035 2037 2038 2054
322 17 2038 2039 2040 2041
323 17 2038 2039 2040 2052
324 17 2040 2039 2038 2054
325 17 1444 1445 1446 1447
326 17 1444 1445 1446 1451
327 17 1446 1445 1444 1457
328 17 2205 2204 2203 2212
329 17 2203 2204 2205 2206
330 17 2217 2204 2205 2218
331 17 2203 2204 2205 2218
332 12 2050 2045 2046 2060
333 17 2046 2045 2050 2048
334 17 2046 2045 2050 2051
335 8 2044 2045 2046 2047
336 12 2044 2045 2046 2060
337 17 2044 2045 2050 2048
338 17 2044 2045 2050 2051
339 17 2050 2045 2044 2057
340 17 2046 2045 2044 2057
341 8 2036 2035 2037 2038
342 8 2036 2035 2037 2053
343 12 2020 2035 2037 2038
344 12 2020 2035 2037 2053
345 17 2039 2038 2037 2053
346 17 2037 2038 2039 2040
347 17 2054 2038 2039 2055
348 17 2037 2038 2039 2055
349 17 1779 1780 1781 1782
350 17 1779 1780 1781 1783
351 17 1781 1780 1779 1789
352 17 1782 1781 1783 1784
353 17 1780 1781 1783 1784
354 17 1783 1781 1780 1790
355 14 1783 1781 1782 1791
356 14 1783 1781 1782 1792
357 17 1782 1781 1780 1790
358 17 1782 1781 1783 1793
359 14 1780 1781 1782 1791
360 14 1780 1781 1782 1792
361 17 1780 1781 1783 1793
362 16 2050 2048 2060 2061
363 8 2049 2048 2050 2051
364 16 2049 2048 2060 2061
365 17 298 297 296 305
366 17 296 297 298 299
367 17 310 297 298 311
368 17 296 297 298 311
369 17 297 296 305 304
370 17 295 296 297 298
371 17 295 296 305 304
372 17 305 296 297 310
373 17 297 296 305 312
374 17 295 296 297 310
375 17 295 296 305 312
376 17 1780 1779 1778 1784
377 17 1778 1779 1780 1781
378 17 1789 1779 1780 1790
379 17 1778 1779 1780 1790
380 8 2047 2046 2045 2050
381 16 2047 2046 2060 2061
382 16 2047 2046 2060 2048
383 16 2045 2046 2060 2061
384 16 2045 2046 2060 2048
385 11 2048 2060 2061 2062
386 11 2048 2060 2061 2074
387 11 2046 2060 2061 2062
388 11 2046 2060 2061 2074
389 16 2046 2060 2048 2049
390 16 2046 2060 2048 2050
391 12 304 299 300 314
392 17 300 299 304 302
393 17 300 299 304 305
394 8 298 299 300 301
395 12 298 299 300 314
396 17 298 299 304 302
397 17 298 299 304 305
398 17 304 299 298 311
399 17 300 299 298 311
400 8 301 300 299 304
401 16 301 300 314 315
402 16 301 300 314 302
403 16 299 300 314 315
404 16 299 300 314 302
405 17 1773 1786 1785 1776
406 17 1773 1786 1785 1795
407 17 1795 1785 1786 1796
408 17 1776 1785 1786 1796
409 17 297 298 299 300
410 17 297 298 299 304
411 17 299 298 297 310
412 17 2062 2061 2074 2073
413 17 2060 2061 2062 2063
414 17 2060 2061 2074 2073
415 17 2074 2061 2062 2075
416 17 2062 2061 2074 2082
417 17 2060 2061 2062 2075
418 17 2060 2061 2074 2082
419 17 2063 2062 2061 2074
420 17 2061 2062 2063 2064
421 17 2075 2062 2063 2076
422 17 2061 2062 2063 2076
423 17 2061 2074 2073 2064
424 17 2061 2074 2073 2081
425 17 2062 2063 2064 2065
426 17 2062 2063 2064 2073
427 17 2064 2063 2062 2075
428 11 302 314 315 316
429 11 302 314 315 328
430 11 300 314 315 316
431 11 300 314 315 328
432 16 300 314 302 303
433 16 300 314 302 304
434 17 315 328 327 318
435 17 315 328 327 335
436 17 1777 1776 1785 1786
437 10 1775 1776 1777 1778
438 17 1775 1776 1785 1786
439 17 1785 1776 1775 1788
440 17 1777 1776 1775 1788
441 17 1777 1776 1785 1795
442 17 1775 1776 1785 1795
443 17 1512 1525 1524 1515
444 17 1512 1525 1524 1532
445 17 2065 2064 2073 2074
446 10 2063 2064 2065 2066
447 17 2063 2064 2073 2074
448 17 2073 2064 2063 2076
449 17 2065 2064 2063 2076
450 17 2065 2064 2073 2081
451 17 2063 2064 2073 2081
452 11 1499 1511 1512 1513
453 11 1499 1511 1512 1525
454 11 1497 1511 1512 1513
455 11 1497 1511 1512 1525
456 16 1497 1511 1499 1500
457 16 1497 1511 1499 1501
458 17 1774 1773 1786 1785
459 17 1772 1773 1774 1775
460 17 1772 1773 1786 1785
461 17 1786 1773 1774 1787
462 17 1774 1773 1786 1796
463 17 1772 1773 1774 1787
464 17 1772 1773 1786 1796
465 17 1774 1775 1776 1777
466 17 1774 1775 1776 1785
467 17 1776 1775 1774 1787
468 17 1692 1691 1703 1704
469 10 1690 1691 1692 1693
470 17 1690 1691 1703 1704
471 17 1703 1691 1690 1706
472 17 1692 1691 1690 1706
473 17 1692 1691 1703 1710
474 17 1690 1691 1703 1710
475 17 2176 2175 2177 2178
476 17 2176 2175 2177 2179
477 17 2174 2175 2177 2178
478 17 2174 2175 2177 2179
479 17 2177 2175 2174 2189
480 9 2177 2175 2176 2190
481 17 2176 2175 2174 2189
482 9 2174 2175 2176 2190
483 17 2173 2172 2179 2177
484 17 2171 2172 2173 2174
485 17 2171 2172 2179 2177
486 2 2179 2172 2171 2186
487 2 2179 2172 2171 2187
488 17 2179 2172 2173 2188
489 2 2173 2172 2171 2186
490 2 2173 2172 2171 2187
491 17 2173 2172 2179 2192
492 17 2171 2172 2173 2188
493 17 2171 2172 2179 2192
494 17 2173 2174 2175 2176
495 17 2173 2174 2175 2177
496 17 2175 2174 2173 2188
497 17 2174 2173 2172 2179
498 17 2172 2173 2174 2175
499 17 2188 2173 2174 2189
500 17 2172 2173 2174 2189
501 7 2170 2171 2172 2173
502 7 2170 2171 2172 2179
503 4 2172 2171 2170 2184
504 4 2172 2171 2170 2185
505 17 993 992 1004 1005
506 10 991 992 993 994
507 17 991 992 1004 1005
508 17 1004 992 991 1007
509 17 993 992 991 1007
510 17 993 992 1004 1011
511 17 991 992 1004 1011
512 17 996 995 994 1003
513 17 994 995 996 997
514 17 1008 995 996 1009
515 17 994 995 996 1009
516 17 995 994 1003 1002
517 17 993 994 995 996
518 17 993 994 1003 1002
519 17 1003 994 995 1008
520 17 995 994 1003 1010
521 17 993 994 995 1008
522 17 993 994 1003 1010
523 10 994 993 992 1004
524 10 992 993 994 995
525 10 992 993 994 1003
526 17 990 991 992 993
527 17 990 991 992 1004
528 17 992 991 990 1006
529 6 2169 2170 2171 2172
530 4 2185 2170 2171 2186
531 4 2185 2170 2171 2187
532 4 2184 2170 2171 2186
533 4 2184 2170 2171 2187
534 1 2171 2170 2169 2183
535 4 2169 2170 2171 2186
536 4 2169 2170 2171 2187
537 17 995 996 997 998
538 17 995 996 997 1002
539 17 997 996 995 1008
540 11 1200 1212 1213 1214
541 11 1200 1212 1213 1226
542 11 1198 1212 1213 1214
543 11 1198 1212 1213 1226
544 16 1198 1212 1200 1201
545 16 1198 1212 1200 1202
546 17 1220 1219 1218 1224
547 17 1218 1219 1220 1221
548 17 1229 1219 1220 1230
549 17 1218 1219 1220 1230
550 8 1199 1198 1197 1202
551 16 1199 1198 1212 1213
552 16 1199 1198 1212 1200
553 16 1197 1198 1212 1213
554 16 1197 1198 1212 1200
555 17 641 642 643 644
556 17 641 642 643 655
557 17 643 642 641 657
558 17 642 641 640 656
559 17 640 641 642 643
560 17 657 641 642 658
561 17 640 641 642 658
562 9 2179 2177 2178 2191
563 17 2178 2177 2179 2192
564 9 2175 2177 2178 2191
565 17 2175 2177 2179 2192
566 17 2172 2179 2177 2175
567 17 2172 2179 2177 2178
568 17 1530 1522 1523 1531
569 17 1520 1522 1523 1531
570 10 1693 1692 1691 1703
571 10 1691 1692 1693 1694
572 10 1691 1692 1693 1702
573 17 989 1005 1004 992
574 17 986 1005 1004 992
575 17 986 1005 989 987
576 17 986 1005 989 990
577 17 989 1005 1004 1011
578 17 986 1005 1004 1011
579 17 991 990 989 1005
580 17 989 990 991 992
581 17 1006 990 991 1007
582 17 989 990 991 1007
583 17 990 989 1005 1004
584 17 987 989 990 991
585 17 987 989 1005 1004
586 17 1005 989 990 1006
587 17 987 989 990 1006
588 8 988 987 989 990
589 8 988 987 989 1005
590 12 955 987 989 990
591 12 955 987 989 1005
592 17 644 643 655 656
593 10 642 643 644 645
594 17 642 643 655 656
595 17 655 643 642 658
596 17 644 643 642 658
597 17 644 643 655 662
598 17 642 643 655 662
599 17 640 656 655 643
600 17 637 656 655 643
601 17 637 656 640 638
602 17 637 656 640 641
603 17 640 656 655 662
604 17 637 656 655 662
605 17 965 964 963 970
606 17 963 964 965 966
607 17 979 964 965 980
608 17 963 964 965 980
609 17 964 965 966 967
610 17 964 965 966 968
611 17 966 965 964 979
612 17 967 966 968 969
613 17 967 966 968 970
614 17 965 966 968 969
615 17 965 966 968 970
616 17 968 966 965 980
617 9 968 966 967 981
618 17 967 966 965 980
619 9 965 966 967 981
620 10 645 644 643 655
621 10 643 644 645 646
622 10 643 644 645 654
623 17 641 640 656 655
624 17 638 640 641 642
625 17 638 640 656 655
626 17 656 640 641 657
627 17 638 640 641 657
628 9 970 968 969 982
629 17 969 968 970 983
630 9 966 968 969 982
631 17 966 968 970 983
632 12 2212 2211 2209 2221
633 8 2206 2211 2209 2210
634 12 2206 2211 2209 2221
635 17 2209 2211 2212 2219
636 17 2206 2211 2212 2219
637 17 1941 1940 1952 1953
638 10 1939 1940 1941 1942
639 17 1939 1940 1952 1953
640 17 1952 1940 1939 1955
641 17 1941 1940 1939 1955
642 17 1941 1940 1952 1959
643 17 1939 1940 1952 1959
644 16 2211 2209 2221 2222
645 8 2210 2209 2211 2212
646 16 2210 2209 2221 2222
647 17 964 963 970 968
648 17 962 963 964 965
649 17 962 963 970 968
650 2 970 963 962 977
651 2 970 963 962 978
652 17 970 963 964 979
653 2 964 963 962 977
654 2 964 963 962 978
655 17 964 963 970 983
656 17 962 963 964 979
657 17 962 963 970 983
658 17 963 970 968 966
659 17 963 970 968 969
660 6 960 961 962 963
661 4 976 961 962 977
662 4 976 961 962 978
663 4 975 961 962 977
664 4 975 961 962 978
665 1 962 961 960 974
666 4 960 961 962 977
667 4 960 961 962 978
668 7 961 962 963 964
669 7 961 962 963 970
670 4 963 962 961 975
671 4 963 962 961 976
672 17 2203 2212 2211 2209
673 17 2203 2212 2211 2206
674 10 1942 1941 1940 1952
675 10 1940 1941 1942 1943
676 10 1940 1941 1942 1951
677 17 2204 2203 2212 2211
678 17 2202 2203 2204 2205
679 17 2202 2203 2212 2211
680 17 2212 2203 2204 2217
681 17 2204 2203 2212 2219
682 17 2202 2203 2204 2217
683 17 2202 2203 2212 2219
684 17 1943 1942 1951 1950
685 17 1941 1942 1943 1944
686 17 1941 1942 1951 1950
687 17 1951 1942 1943 1956
688 17 1943 1942 1951 1958
689 17 1941 1942 1943 1956
690 17 1941 1942 1951 1958
691 17 1944 1943 1942 1951
692 17 1942 1943 1944 1945
693 17 1956 1943 1944 1957
694 17 1942 1943 1944 1957
695 17 1943 1944 1945 1946
696 17 1943 1944 1945 1950
697 17 1945 1944 1943 1956
698 10 2203 2202 2201 2213
699 10 2201 2202 2203 2204
700 10 2201 2202 2203 2212
701 17 2202 2201 2213 2214
702 10 2200 2201 2202 2203
703 17 2200 2201 2213 2214
704 17 2213 2201 2200 2216
705 17 2202 2201 2200 2216
706 17 2202 2201 2213 2220
707 17 2200 2201 2213 2220
708 17 2199 2200 2201 2202
709 17 2199 2200 2201 2213
710 17 2201 2200 2199 2215
711 17 2200 2199 2198 2214
712 17 2198 2199 2200 2201
713 17 2215 2199 2200 2216
714 17 2198 2199 2200 2216
715 17 1532 1524 1525 1533
716 17 1515 1524 1525 1533
717 17 1513 1512 1525 1524
718 17 1511 1512 1513 1514
719 17 1511 1512 1525 1524
720 17 1525 1512 1513 1526
721 17 1513 1512 1525 1533
722 17 1511 1512 1513 1526
723 17 1511 1512 1525 1533
724 17 1517 1523 1522 1520
725 17 1517 1523 1522 1530
726 17 1518 1517 1523 1522
727 17 1516 1517 1518 1519
728 17 1516 1517 1523 1522
729 17 1523 1517 1518 1528
730 17 1518 1517 1523 1531
731 17 1516 1517 1518 1528
732 17 1516 1517 1523 1531
733 17 2198 2214 2213 2201
734 17 2195 2214 2213 2201
735 17 2195 2214 2198 2196
736 17 2195 2214 2198 2199
737 17 2198 2214 2213 2220
738 17 2195 2214 2213 2220
739 8 2194 2195 2214 2213
740 8 2194 2195 2214 2198
741 16 2194 2195 2164 2196
742 12 2164 2195 2214 2213
743 12 2164 2195 2214 2198
744 17 2199 2198 2214 2213
745 17 2196 2198 2199 2200
746 17 2196 2198 2214 2213
747 17 2214 2198 2199 2215
748 17 2196 2198 2199 2215
749 8 2197 2196 2198 2199
750 8 2197 2196 2198 2214
751 12 2164 2196 2198 2199
752 12 2164 2196 2198 2214
753 17 1514 1513 1512 1525
754 17 1512 1513 1514 1515
755 17 1526 1513 1514 1527
756 17 1512 1513 1514 1527
757 17 1513 1514 1515 1516
758 17 1513 1514 1515 1524
759 17 1515 1514 1513 1526
760 16 2196 2164 2195 2214
761 16 2195 2164 2196 2197
762 16 2195 2164 2196 2198
763 16 2163 2164 2195 2194
764 16 2163 2164 2195 2214
765 16 2163 2164 2196 2197
766 16 2163 2164 2196 2198
767 11 2165 2163 2164 2195
768 11 2165 2163 2164 2196
769 17 2164 2163 2165 2166
770 11 2162 2163 2164 2195
771 11 2162 2163 2164 2196
772 17 2162 2163 2165 2166
773 17 2165 2163 2162 2181
774 17 2164 2163 2162 2181
775 17 2164 2163 2165 2182
776 17 2162 2163 2165 2182
777 17 2163 2165 2166 2167
778 17 2163 2165 2166 2180
779 17 1516 1515 1524 1525
780 10 1514 1515 1516 1517
781 17 1514 1515 1524 1525
782 17 1524 1515 1514 1527
783 17 1516 1515 1514 1527
784 17 1516 1515 1524 1532
785 17 1514 1515 1524 1532
786 17 2163 2162 2161 2180
787 17 2161 2162 2163 2164
788 17 2161 2162 2163 2165
789 13 2167 2169 2170 2171
790 5 2167 2169 2170 2171
791 3 2167 2169 2170 2171
792 1 2183 2169 2170 2184
793 1 2183 2169 2170 2185
794 2 2167 2169 2170 2184
795 2 2167 2169 2170 2185
796 10 1517 1516 1515 1524
797 10 1515 1516 1517 1518
798 10 1515 1516 1517 1523
799 12 1202 1197 1198 1212
800 17 1198 1197 1202 1200
801 17 1198 1197 1202 1203
802 8 1196 1197 1198 1199
803 12 1196 1197 1198 1212
804 17 1196 1197 1202 1200
805 17 1196 1197 1202 1203
806 17 1202 1197 1196 1209
807 17 1198 1197 1196 1209
808 17 1195 1196 1197 1198
809 17 1195 1196 1197 1202
810 17 1197 1196 1195 1208
811 8 2165 2166 2167 2168
812 12 2165 2166 2167 2169
813 17 2180 2166 2165 2182
814 17 2167 2166 2165 2182
815 17 2167 2166 2180 2193
816 17 2165 2166 2180 2193
817 12 2169 2167 2166 2180
818 8 2168 2167 2166 2180
819 16 2168 2167 2169 2170
820 16 2166 2167 2169 2170
821 15 2168 2167 2169 2183
822 16 2168 2167 2169 2183
823 16 2166 2167 2169 2183
824 17 1519 1518 1517 1523
825 17 1517 1518 1519 1520
826 17 1528 1518 1519 1529
827 17 1517 1518 1519 1529
828 17 541 542 543 544
829 17 541 542 543 555
830 17 543 542 541 557
831 17 2161 2180 2166 2165
832 17 2161 2180 2166 2167
833 10 545 544 543 555
834 10 543 544 545 546
835 10 543 544 545 554
836 17 1196 1195 1194 1203
837 17 1194 1195 1196 1197
838 17 1208 1195 1196 1209
839 17 1194 1195 1196 1209
840 17 2162 2161 2180 2166
841 17 2160 2161 2162 2163
842 17 2160 2161 2180 2166
843 17 2180 2161 2162 2181
844 17 2162 2161 2180 2193
845 17 2160 2161 2162 2181
846 17 2160 2161 2180 2193
847 17 1219 1218 1224 1223
848 17 1217 1218 1219 1220
849 17 1217 1218 1224 1223
850 17 1224 1218 1219 1229
851 17 1219 1218 1224 1232
852 17 1217 1218 1219 1229
853 17 1217 1218 1224 1232
854 17 1214 1213 1226 1225
855 17 1212 1213 1214 1215
856 17 1212 1213 1226 1225
857 17 1226 1213 1214 1227
858 17 1214 1213 1226 1234
859 17 1212 1213 1214 1227
860 17 1212 1213 1226 1234
861 17 1215 1214 1213 1226
862 17 1213 1214 1215 1216
863 17 1227 1214 1215 1228
864 17 1213 1214 1215 1228
865 17 1214 1215 1216 1217
866 17 1214 1215 1216 1225
867 17 1216 1215 1214 1227
868 17 1217 1216 1225 1226
869 10 1215 1216 1217 1218
870 17 1215 1216 1225 1226
871 17 1225 1216 1215 1228
872 17 1217 1216 1215 1228
873 17 1217 1216 1225 1233
874 17 1215 1216 1225 1233
875 10 1218 1217 1216 1225
876 10 1216 1217 1218 1219
877 10 1216 1217 1218 1224
878 17 505 504 503 522
879 17 503 504 505 506
880 17 503 504 505 507
881 16 492 490 502 503
882 8 491 490 492 493
883 16 491 490 502 503
884 17 505 507 508 509
885 17 505 507 508 522
886 8 507 508 509 510
887 12 507 508 509 511
888 17 522 508 507 524
889 17 509 508 507 524
890 17 509 508 522 535
891 17 507 508 522 535
892 17 503 522 508 507
893 17 503 522 508 509
894 13 509 511 512 513
895 5 509 511 512 513
896 3 509 511 512 513
897 1 525 511 512 526
898 1 525 511 512 527
899 2 509 511 512 526
900 2 509 511 512 527
901 6 511 512 513 514
902 4 527 512 513 528
903 4 527 512 513 529
904 4 526 512 513 528
905 4 526 512 513 529
906 1 513 512 511 525
907 4 511 512 513 528
908 4 511 512 513 529
909 12 511 509 508 522
910 8 510 509 508 522
911 16 510 509 511 512
912 16 508 509 511 512
913 15 510 509 511 525
914 16 510 509 511 525
915 16 508 509 511 525
916 17 2566 2567 2568 2569
917 17 2566 2567 2568 2570
918 17 2568 2567 2566 2576
919 17 504 503 522 508
920 17 502 503 504 505
921 17 502 503 522 508
922 17 522 503 504 523
923 17 504 503 522 535
924 17 502 503 504 523
925 17 502 503 522 535
926 11 507 505 506 537
927 11 507 505 506 538
928 17 506 505 507 508
929 11 504 505 506 537
930 11 504 505 506 538
931 17 504 505 507 508
932 17 507 505 504 523
933 17 506 505 504 523
934 17 506 505 507 524
935 17 504 505 507 524
936 16 2584 2569 2583 2602
937 16 2583 2569 2584 2585
938 16 2583 2569 2584 2586
939 16 2568 2569 2583 2582
940 16 2568 2569 2583 2602
941 16 2568 2569 2584 2585
942 16 2568 2569 2584 2586
943 11 490 502 503 504
944 11 490 502 503 522
945 11 488 502 503 504
946 11 488 502 503 522
947 16 488 502 490 491
948 16 488 502 490 492
949 8 489 488 487 492
950 16 489 488 502 503
951 16 489 488 502 490
952 16 487 488 502 503
953 16 487 488 502 490
954 8 2582 2583 2602 2601
955 8 2582 2583 2602 2586
956 16 2582 2583 2569 2584
957 12 2569 2583 2602 2601
958 12 2569 2583 2602 2586
959 12 493 492 490 502
960 8 487 492 490 491
961 12 487 492 490 502
962 17 490 492 493 500
963 17 487 492 493 500
964 17 2341 2350 2349 2347
965 17 2341 2350 2349 2344
966 12 492 487 488 502
967 17 488 487 492 490
968 17 488 487 492 493
969 8 486 487 488 489
970 12 486 487 488 502
971 17 486 487 492 490
972 17 486 487 492 493
973 17 492 487 486 499
974 17 488 487 486 499
975 17 484 493 492 490
976 17 484 493 492 487
977 17 2336 2352 2351 2339
978 17 2333 2352 2351 2339
979 17 2333 2352 2336 2334
980 17 2333 2352 2336 2337
981 17 2336 2352 2351 2358
982 17 2333 2352 2351 2358
983 17 485 486 487 488
984 17 485 486 487 492
985 17 487 486 485 498
986 8 2332 2333 2352 2351
987 8 2332 2333 2352 2336
988 16 2332 2333 2302 2334
989 12 2302 2333 2352 2351
990 12 2302 2333 2352 2336
991 8 636 637 656 655
992 8 636 637 656 640
993 16 636 637 623 638
994 12 623 637 656 655
995 12 623 637 656 640
996 8 639 638 640 641
997 8 639 638 640 656
998 12 623 638 640 641
999 12 623 638 640 656
1000 16 638 623 637 656
1001 16 637 623 638 639
1002 16 637 623 638 640
1003 16 622 623 637 636
1004 16 622 623 637 656
1005 16 622 623 638 639
1006 16 622 623 638 640
1007 11 624 622 623 637
1008 11 624 622 623 638
1009 17 623 622 624 625
1010 11 621 622 623 637
1011 11 621 622 623 638
1012 17 621 622 624 625
1013 17 624 622 621 631
1014 17 623 622 621 631
1015 17 623 622 624 632
1016 17 621 622 624 632
1017 17 632 624 625 633
1018 17 622 624 625 633
1019 17 620 621 622 623
1020 17 620 621 622 624
1021 17 622 621 620 630
1022 17 621 620 619 625
1023 17 619 620 621 622
1024 17 630 620 621 631
1025 17 619 620 621 631
1026 17 620 619 625 624
1027 17 618 619 620 621
1028 17 618 619 625 624
1029 17 625 619 620 630
1030 17 620 619 625 633
1031 17 618 619 620 630
1032 17 618 619 625 633
1033 17 619 625 624 622
1034 17 619 625 624 632
1035 10 619 618 617 626
1036 10 617 618 619 620
1037 10 617 618 619 625
1038 17 618 617 626 627
1039 10 616 617 618 619
1040 17 616 617 626 627
1041 17 626 617 616 629
1042 17 618 617 616 629
1043 17 618 617 626 634
1044 17 616 617 626 634
1045 17 485 484 493 492
1046 17 483 484 485 486
1047 17 483 484 493 492
1048 17 493 484 485 498
1049 17 485 484 493 500
1050 17 483 484 485 498
1051 17 483 484 493 500
1052 17 634 626 627 635
1053 17 617 626 627 635
1054 17 486 485 484 493
1055 17 484 485 486 487
1056 17 498 485 486 499
1057 17 484 485 486 499
1058 17 183 175 176 184
1059 17 173 175 176 184
1060 8 187 188 207 206
1061 8 187 188 207 191
1062 16 187 188 174 189
1063 12 174 188 207 206
1064 12 174 188 207 191
1065 17 170 176 175 173
1066 17 170 176 175 183
1067 17 2281 2282 2283 2284
1068 17 2281 2282 2283 2288
1069 17 2283 2282 2281 2294
1070 10 484 483 482 494
1071 10 482 483 484 485
1072 10 482 483 484 493
1073 17 191 207 206 194
1074 17 188 207 206 194
1075 17 188 207 191 189
1076 17 188 207 191 192
1077 17 191 207 206 213
1078 17 188 207 206 213
1079 17 192 191 207 206
1080 17 189 191 192 193
1081 17 189 191 207 206
1082 17 207 191 192 208
1083 17 189 191 192 208
1084 17 193 192 191 207
1085 17 191 192 193 194
1086 17 208 192 193 209
1087 17 191 192 193 209
1088 17 615 616 617 618
1089 17 615 616 617 626
1090 17 617 616 615 628
1091 17 614 627 626 617
1092 17 614 627 626 634
1093 17 615 614 627 626
1094 17 613 614 615 616
1095 17 613 614 627 626
1096 17 627 614 615 628
1097 17 615 614 627 635
1098 17 613 614 615 628
1099 17 613 614 627 635
1100 16 189 174 188 207
1101 16 188 174 189 190
1102 16 188 174 189 191
1103 16 173 174 188 187
1104 16 173 174 188 207
1105 16 173 174 189 190
1106 16 173 174 189 191
1107 8 190 189 191 192
1108 8 190 189 191 207
1109 12 174 189 191 192
1110 12 174 189 191 207
1111 11 175 173 174 188
1112 11 175 173 174 189
1113 17 174 173 175 176
1114 11 172 173 174 188
1115 11 172 173 174 189
1116 17 172 173 175 176
1117 17 175 173 172 182
1118 17 174 173 172 182
1119 17 174 173 175 183
1120 17 172 173 175 183
1121 17 171 172 173 174
1122 17 171 172 173 175
1123 17 173 172 171 181
1124 12 43 38 39 53
1125 17 39 38 43 41
1126 17 39 38 43 44
1127 8 37 38 39 40
1128 12 37 38 39 53
1129 17 37 38 43 41
1130 17 37 38 43 44
1131 17 43 38 37 50
1132 17 39 38 37 50
1133 8 40 39 38 43
1134 16 40 39 53 54
1135 16 40 39 53 41
1136 16 38 39 53 54
1137 16 38 39 53 41
1138 17 55 54 73 59
1139 17 53 54 55 56
1140 17 53 54 73 59
1141 17 73 54 55 74
1142 17 55 54 73 86
1143 17 53 54 55 74
1144 17 53 54 73 86
1145 11 41 53 54 55
1146 11 41 53 54 73
1147 11 39 53 54 55
1148 11 39 53 54 73
1149 16 39 53 41 42
1150 16 39 53 41 43
1151 12 44 43 41 53
1152 8 38 43 41 42
1153 12 38 43 41 53
1154 17 41 43 44 51
1155 17 38 43 44 51
1156 17 36 37 38 39
1157 17 36 37 38 43
1158 17 38 37 36 49
1159 17 171 170 176 175
1160 17 169 170 171 172
1161 17 169 170 176 175
1162 17 176 170 171 181
1163 17 171 170 176 184
1164 17 169 170 171 181
1165 17 169 170 176 184
1166 17 172 171 170 176
1167 17 170 171 172 173
1168 17 181 171 172 182
1169 17 170 171 172 182
1170 17 37 36 35 44
1171 17 35 36 37 38
1172 17 49 36 37 50
1173 17 35 36 37 50
1174 17 36 35 44 43
1175 17 34 35 36 37
1176 17 34 35 44 43
1177 17 44 35 36 49
1178 17 36 35 44 51
1179 17 34 35 36 49
1180 17 34 35 44 51
1181 11 2520 2518 2519 2533
1182 11 2520 2518 2519 2534
1183 17 2519 2518 2520 2521
1184 11 2517 2518 2519 2533
1185 11 2517 2518 2519 2534
1186 17 2517 2518 2520 2521
1187 17 2520 2518 2517 2527
1188 17 2519 2518 2517 2527
1189 17 2519 2518 2520 2528
1190 17 2517 2518 2520 2528
1191 8 2535 2534 2536 2537
1192 8 2535 2534 2536 2552
1193 12 2519 2534 2536 2537
1194 12 2519 2534 2536 2552
1195 16 2534 2519 2533 2552
1196 16 2533 2519 2534 2535
1197 16 2533 2519 2534 2536
1198 16 2518 2519 2533 2532
1199 16 2518 2519 2533 2552
1200 16 2518 2519 2534 2535
1201 16 2518 2519 2534 2536
1202 17 2537 2536 2552 2551
1203 17 2534 2536 2537 2538
1204 17 2534 2536 2552 2551
1205 17 2552 2536 2537 2553
1206 17 2534 2536 2537 2553
1207 17 2538 2537 2536 2552
1208 17 2536 2537 2538 2539
1209 17 2553 2537 2538 2554
1210 17 2536 2537 2538 2554
1211 8 2532 2533 2552 2551
1212 8 2532 2533 2552 2536
1213 16 2532 2533 2519 2534
1214 12 2519 2533 2552 2551
1215 12 2519 2533 2552 2536
1216 16 43 41 53 54
1217 8 42 41 43 44
1218 16 42 41 53 54
1219 8 337 338 357 356
1220 8 337 338 357 341
1221 16 337 338 324 339
1222 12 324 338 357 356
1223 12 324 338 357 341
1224 17 2536 2552 2551 2539
1225 17 2533 2552 2551 2539
1226 17 2533 2552 2536 2534
1227 17 2533 2552 2536 2537
1228 17 2536 2552 2551 2558
1229 17 2533 2552 2551 2558
1230 17 35 44 43 41
1231 17 35 44 43 38
1232 17 341 357 356 344
1233 17 338 357 356 344
1234 17 338 357 341 339
1235 17 338 357 341 342
1236 17 341 357 356 363
1237 17 338 357 356 363
1238 17 54 73 59 58
1239 17 54 73 59 60
1240 17 544 543 555 556
1241 10 542 543 544 545
1242 17 542 543 555 556
1243 17 555 543 542 558
1244 17 544 543 542 558
1245 17 544 543 555 562
1246 17 542 543 555 562
1247 17 542 541 540 556
1248 17 540 541 542 543
1249 17 557 541 542 558
1250 17 540 541 542 558
1251 16 538 506 537 556
1252 16 537 506 538 539
1253 16 537 506 538 540
1254 16 505 506 537 536
1255 16 505 506 537 556
1256 16 505 506 538 539
1257 16 505 506 538 540
1258 17 2537 2538 2539 2540
1259 17 2537 2538 2539 2551
1260 17 2539 2538 2537 2553
1261 12 2350 2349 2347 2359
1262 8 2344 2349 2347 2348
1263 12 2344 2349 2347 2359
1264 17 2347 2349 2350 2357
1265 17 2344 2349 2350 2357
1266 8 536 537 556 555
1267 8 536 537 556 540
1268 16 536 537 506 538
1269 12 506 537 556 555
1270 12 506 537 556 540
1271 16 2349 2347 2359 2360
1272 8 2348 2347 2349 2350
1273 16 2348 2347 2359 2360
1274 8 539 538 540 541
1275 8 539 538 540 556
1276 12 506 538 540 541
1277 12 506 538 540 556
1278 17 541 540 556 555
1279 17 538 540 541 542
1280 17 538 540 556 555
1281 17 556 540 541 557
1282 17 538 540 541 557
1283 17 2362 2361 2360 2373
1284 17 2360 2361 2362 2363
1285 17 2374 2361 2362 2375
1286 17 2360 2361 2362 2375
1287 17 2361 2362 2363 2364
1288 17 2361 2362 2363 2372
1289 17 2363 2362 2361 2374
1290 17 2364 2363 2372 2373
1291 10 2362 2363 2364 2365
1292 17 2362 2363 2372 2373
1293 17 2372 2363 2362 2375
1294 17 2364 2363 2362 2375
1295 17 2364 2363 2372 2380
1296 17 2362 2363 2372 2380
1297 10 2365 2364 2363 2372
1298 10 2363 2364 2365 2366
1299 10 2363 2364 2365 2371
1300 17 2380 2372 2373 2381
1301 17 2363 2372 2373 2381
1302 17 2361 2360 2373 2372
1303 17 2359 2360 2361 2362
1304 17 2359 2360 2373 2372
1305 17 2373 2360 2361 2374
1306 17 2361 2360 2373 2381
1307 17 2359 2360 2361 2374
1308 17 2359 2360 2373 2381
1309 17 2360 2373 2372 2363
1310 17 2360 2373 2372 2380
1311 17 540 556 555 543
1312 17 537 556 555 543
1313 17 537 556 540 538
1314 17 537 556 540 541
1315 17 540 556 555 562
1316 17 537 556 555 562
1317 11 2347 2359 2360 2361
1318 11 2347 2359 2360 2373
1319 11 2345 2359 2360 2361
1320 11 2345 2359 2360 2373
1321 16 2345 2359 2347 2348
1322 16 2345 2359 2347 2349
1323 8 2346 2345 2344 2349
1324 16 2346 2345 2359 2360
1325 16 2346 2345 2359 2347
1326 16 2344 2345 2359 2360
1327 16 2344 2345 2359 2347
1328 17 2540 2539 2551 2552
1329 10 2538 2539 2540 2541
1330 17 2538 2539 2551 2552
1331 17 2551 2539 2538 2554
1332 17 2540 2539 2538 2554
1333 17 2540 2539 2551 2558
1334 17 2538 2539 2551 2558
1335 17 2541 2550 2549 2547
1336 17 2541 2550 2549 2544
1337 10 2541 2540 2539 2551
1338 10 2539 2540 2541 2542
1339 10 2539 2540 2541 2550
1340 12 2550 2549 2547 2559
1341 8 2544 2549 2547 2548
1342 12 2544 2549 2547 2559
1343 17 2547 2549 2550 2557
1344 17 2544 2549 2550 2557
1345 17 2542 2541 2550 2549
1346 17 2540 2541 2542 2543
1347 17 2540 2541 2550 2549
1348 17 2550 2541 2542 2555
1349 17 2542 2541 2550 2557
1350 17 2540 2541 2542 2555
1351 17 2540 2541 2550 2557
1352 12 2349 2344 2345 2359
1353 17 2345 2344 2349 2347
1354 17 2345 2344 2349 2350
1355 8 2343 2344 2345 2346
1356 12 2343 2344 2345 2359
1357 17 2343 2344 2349 2347
1358 17 2343 2344 2349 2350
1359 17 2349 2344 2343 2356
1360 17 2345 2344 2343 2356
1361 12 2549 2544 2545 2559
1362 17 2545 2544 2549 2547
1363 17 2545 2544 2549 2550
1364 8 2543 2544 2545 2546
1365 12 2543 2544 2545 2559
1366 17 2543 2544 2549 2547
1367 17 2543 2544 2549 2550
1368 17 2549 2544 2543 2556
1369 17 2545 2544 2543 2556
1370 17 547 546 545 554
1371 17 545 546 547 548
1372 17 559 546 547 560
1373 17 545 546 547 560
1374 8 2546 2545 2544 2549
1375 16 2546 2545 2559 2560
1376 16 2546 2545 2559 2547
1377 16 2544 2545 2559 2560
1378 16 2544 2545 2559 2547
1379 16 2549 2547 2559 2560
1380 8 2548 2547 2549 2550
1381 16 2548 2547 2559 2560
1382 11 2547 2559 2560 2561
1383 11 2547 2559 2560 2573
1384 11 2545 2559 2560 2561
1385 11 2545 2559 2560 2573
1386 16 2545 2559 2547 2548
1387 16 2545 2559 2547 2549
1388 17 546 545 554 553
1389 17 544 545 546 547
1390 17 544 545 554 553
1391 17 554 545 546 559
1392 17 546 545 554 561
1393 17 544 545 546 559
1394 17 544 545 554 561
1395 10 296 295 294 306
1396 10 294 295 296 297
1397 10 294 295 296 305
1398 11 2570 2568 2569 2583
1399 11 2570 2568 2569 2584
1400 17 2569 2568 2570 2571
1401 11 2567 2568 2569 2583
1402 11 2567 2568 2569 2584
1403 17 2567 2568 2570 2571
1404 17 2570 2568 2567 2577
1405 17 2569 2568 2567 2577
1406 17 2569 2568 2570 2578
1407 17 2567 2568 2570 2578
1408 17 2567 2566 2565 2571
1409 17 2565 2566 2567 2568
1410 17 2576 2566 2567 2577
1411 17 2565 2566 2567 2577
1412 17 1567 1573 1572 1570
1413 17 1567 1573 1572 1580
1414 17 1580 1572 1573 1581
1415 17 1570 1572 1573 1581
1416 17 1566 1565 1574 1575
1417 10 1564 1565 1566 1567
1418 17 1564 1565 1574 1575
1419 17 1574 1565 1564 1577
1420 17 1566 1565 1564 1577
1421 17 1566 1565 1574 1582
1422 17 1564 1565 1574 1582
1423 17 2580 2572 2573 2581
1424 17 2563 2572 2573 2581
1425 10 1567 1566 1565 1574
1426 10 1565 1566 1567 1568
1427 10 1565 1566 1567 1573
1428 17 1568 1567 1573 1572
1429 17 1566 1567 1568 1569
1430 17 1566 1567 1573 1572
1431 17 1573 1567 1568 1578
1432 17 1568 1567 1573 1581
1433 17 1566 1567 1568 1578
1434 17 1566 1567 1573 1581
1435 17 2578 2570 2571 2579
1436 17 2568 2570 2571 2579
1437 17 2565 2571 2570 2568
1438 17 2565 2571 2570 2578
1439 17 2566 2565 2571 2570
1440 17 2564 2565 2566 2567
1441 17 2564 2565 2571 2570
1442 17 2571 2565 2566 2576
1443 17 2566 2565 2571 2579
1444 17 2564 2565 2566 2576
1445 17 2564 2565 2571 2579
1446 17 1582 1574 1575 1583
1447 17 1565 1574 1575 1583
1448 17 1569 1568 1567 1573
1449 17 1567 1568 1569 1570
1450 17 1578 1568 1569 1579
1451 17 1567 1568 1569 1579
1452 17 1568 1569 1570 1571
1453 17 1568 1569 1570 1572
1454 17 1570 1569 1568 1578
1455 10 2565 2564 2563 2572
1456 10 2563 2564 2565 2566
1457 10 2563 2564 2565 2571
1458 17 1562 1575 1574 1565
1459 17 1562 1575 1574 1582
1460 17 2564 2563 2572 2573
1461 10 2562 2563 2564 2565
1462 17 2562 2563 2572 2573
1463 17 2572 2563 2562 2575
1464 17 2564 2563 2562 2575
1465 17 2564 2563 2572 2580
1466 17 2562 2563 2572 2580
1467 17 2301 2300 2299 2318
1468 17 2299 2300 2301 2302
1469 17 2299 2300 2301 2303
1470 17 2561 2562 2563 2564
1471 17 2561 2562 2563 2572
1472 17 2563 2562 2561 2574
1473 11 2303 2301 2302 2333
1474 11 2303 2301 2302 2334
1475 17 2302 2301 2303 2304
1476 11 2300 2301 2302 2333
1477 11 2300 2301 2302 2334
1478 17 2300 2301 2303 2304
1479 17 2303 2301 2300 2319
1480 17 2302 2301 2300 2319
1481 17 2302 2301 2303 2320
1482 17 2300 2301 2303 2320
1483 16 2334 2302 2333 2352
1484 16 2333 2302 2334 2335
1485 16 2333 2302 2334 2336
1486 16 2301 2302 2333 2332
1487 16 2301 2302 2333 2352
1488 16 2301 2302 2334 2335
1489 16 2301 2302 2334 2336
1490 17 2301 2303 2304 2305
1491 17 2301 2303 2304 2318
1492 11 1572 1570 1571 1585
1493 11 1572 1570 1571 1586
1494 17 1571 1570 1572 1573
1495 11 1569 1570 1571 1585
1496 11 1569 1570 1571 1586
1497 17 1569 1570 1572 1573
1498 17 1572 1570 1569 1579
1499 17 1571 1570 1569 1579
1500 17 1571 1570 1572 1580
1501 17 1569 1570 1572 1580
1502 16 2288 2286 2298 2299
1503 8 2287 2286 2288 2289
1504 16 2287 2286 2298 2299
1505 11 2286 2298 2299 2300
1506 11 2286 2298 2299 2318
1507 11 2284 2298 2299 2300
1508 11 2284 2298 2299 2318
1509 16 2284 2298 2286 2287
1510 16 2284 2298 2286 2288
1511 17 2300 2299 2318 2304
1512 17 2298 2299 2300 2301
1513 17 2298 2299 2318 2304
1514 17 2318 2299 2300 2319
1515 17 2300 2299 2318 2331
1516 17 2298 2299 2300 2319
1517 17 2298 2299 2318 2331
1518 12 2289 2288 2286 2298
1519 8 2283 2288 2286 2287
1520 12 2283 2288 2286 2298
1521 17 2286 2288 2289 2296
1522 17 2283 2288 2289 2296
1523 8 2303 2304 2305 2306
1524 12 2303 2304 2305 2307
1525 17 2318 2304 2303 2320
1526 17 2305 2304 2303 2320
1527 17 2305 2304 2318 2331
1528 17 2303 2304 2318 2331
1529 8 2335 2334 2336 2337
1530 8 2335 2334 2336 2352
1531 12 2302 2334 2336 2337
1532 12 2302 2334 2336 2352
1533 17 2562 2561 2560 2573
1534 17 2560 2561 2562 2563
1535 17 2574 2561 2562 2575
1536 17 2560 2561 2562 2575
1537 8 2285 2284 2283 2288
1538 16 2285 2284 2298 2299
1539 16 2285 2284 2298 2286
1540 16 2283 2284 2298 2299
1541 16 2283 2284 2298 2286
1542 17 2560 2573 2572 2563
1543 17 2560 2573 2572 2580
1544 13 2305 2307 2308 2309
1545 5 2305 2307 2308 2309
1546 3 2305 2307 2308 2309
1547 1 2321 2307 2308 2322
1548 1 2321 2307 2308 2323
1549 2 2305 2307 2308 2322
1550 2 2305 2307 2308 2323
1551 17 616 615 614 627
1552 17 614 615 616 617
1553 17 628 615 616 629
1554 17 614 615 616 629
1555 12 2288 2283 2284 2298
1556 17 2284 2283 2288 2286
1557 17 2284 2283 2288 2289
1558 8 2282 2283 2284 2285
1559 12 2282 2283 2284 2298
1560 17 2282 2283 2288 2286
1561 17 2282 2283 2288 2289
1562 17 2288 2283 2282 2295
1563 17 2284 2283 2282 2295
1564 17 2438 2437 2436 2452
1565 17 2436 2437 2438 2439
1566 17 2453 2437 2438 2454
1567 17 2436 2437 2438 2454
1568 17 2437 2438 2439 2440
1569 17 2437 2438 2439 2451
1570 17 2439 2438 2437 2453
1571 17 2299 2318 2304 2303
1572 17 2299 2318 2304 2305
1573 10 2441 2440 2439 2451
1574 10 2439 2440 2441 2442
1575 10 2439 2440 2441 2450
1576 17 2440 2439 2451 2452
1577 10 2438 2439 2440 2441
1578 17 2438 2439 2451 2452
1579 17 2451 2439 2438 2454
1580 17 2440 2439 2438 2454
1581 17 2440 2439 2451 2458
1582 17 2438 2439 2451 2458
1583 12 2307 2305 2304 2318
1584 8 2306 2305 2304 2318
1585 16 2306 2305 2307 2308
1586 16 2304 2305 2307 2308
1587 15 2306 2305 2307 2321
1588 16 2306 2305 2307 2321
1589 16 2304 2305 2307 2321
1590 17 2442 2441 2450 2449
1591 17 2440 2441 2442 2443
1592 17 2440 2441 2450 2449
1593 17 2450 2441 2442 2455
1594 17 2442 2441 2450 2457
1595 17 2440 2441 2442 2455
1596 17 2440 2441 2450 2457
1597 17 192 193 194 195
1598 17 192 193 194 206
1599 17 194 193 192 208
1600 17 195 194 206 207
1601 10 193 194 195 196
1602 17 193 194 206 207
1603 17 206 194 193 209
1604 17 195 194 193 209
1605 17 195 194 206 213
1606 17 193 194 206 213
1607 17 215 228 227 218
1608 17 215 228 227 235
1609 17 56 55 54 73
1610 17 54 55 56 57
1611 17 54 55 56 58
1612 10 196 195 194 206
1613 10 194 195 196 197
1614 10 194 195 196 205
1615 17 196 205 204 202
1616 17 196 205 204 199
1617 17 197 196 205 204
1618 17 195 196 197 198
1619 17 195 196 205 204
1620 17 205 196 197 210
1621 17 197 196 205 212
1622 17 195 196 197 210
1623 17 195 196 205 212
1624 16 204 202 214 215
1625 8 203 202 204 205
1626 16 203 202 214 215
1627 12 205 204 202 214
1628 8 199 204 202 203
1629 12 199 204 202 214
1630 17 202 204 205 212
1631 17 199 204 205 212
1632 11 202 214 215 216
1633 11 202 214 215 228
1634 11 200 214 215 216
1635 11 200 214 215 228
1636 16 200 214 202 203
1637 16 200 214 202 204
1638 17 198 197 196 205
1639 17 196 197 198 199
1640 17 210 197 198 211
1641 17 196 197 198 211
1642 12 204 199 200 214
1643 17 200 199 204 202
1644 17 200 199 204 205
1645 8 198 199 200 201
1646 12 198 199 200 214
1647 17 198 199 204 202
1648 17 198 199 204 205
1649 17 204 199 198 211
1650 17 200 199 198 211
1651 8 201 200 199 204
1652 16 201 200 214 215
1653 16 201 200 214 202
1654 16 199 200 214 215
1655 16 199 200 214 202
1656 17 197 198 199 200
1657 17 197 198 199 204
1658 17 199 198 197 210
1659 17 216 215 228 227
1660 17 214 215 216 217
1661 17 214 215 228 227
1662 17 228 215 216 229
1663 17 216 215 228 236
1664 17 214 215 216 229
1665 17 214 215 228 236
1666 17 321 320 326 325
1667 17 319 320 321 322
1668 17 319 320 326 325
1669 17 326 320 321 331
1670 17 321 320 326 334
1671 17 319 320 321 331
1672 17 319 320 326 334
1673 10 320 319 318 327
1674 10 318 319 320 321
1675 10 318 319 320 326
1676 17 320 326 325 323
1677 17 320 326 325 333
1678 17 321 322 323 324
1679 17 321 322 323 325
1680 17 323 322 321 331
1681 17 322 321 320 326
1682 17 320 321 322 323
1683 17 331 321 322 332
1684 17 320 321 322 332
1685 16 339 324 338 357
1686 16 338 324 339 340
1687 16 338 324 339 341
1688 16 323 324 338 337
1689 16 323 324 338 357
1690 16 323 324 339 340
1691 16 323 324 339 341
1692 11 325 323 324 338
1693 11 325 323 324 339
1694 17 324 323 325 326
1695 11 322 323 324 338
1696 11 322 323 324 339
1697 17 322 323 325 326
1698 17 325 323 322 332
1699 17 324 323 322 332
1700 17 324 323 325 333
1701 17 322 323 325 333
1702 17 333 325 326 334
1703 17 323 325 326 334
1704 17 335 327 328 336
1705 17 318 327 328 336
1706 17 319 318 327 328
1707 10 317 318 319 320
1708 17 317 318 327 328
1709 17 327 318 317 330
1710 17 319 318 317 330
1711 17 319 318 327 335
1712 17 317 318 327 335
1713 11 58 56 57 88
1714 11 58 56 57 89
1715 17 57 56 58 59
1716 11 55 56 57 88
1717 11 55 56 57 89
1718 17 55 56 58 59
1719 17 58 56 55 74
1720 17 57 56 55 74
1721 17 57 56 58 75
1722 17 55 56 58 75
1723 8 87 88 107 106
1724 8 87 88 107 91
1725 16 87 88 57 89
1726 12 57 88 107 106
1727 12 57 88 107 91
1728 12 305 304 302 314
1729 8 299 304 302 303
1730 12 299 304 302 314
1731 17 302 304 305 312
1732 17 299 304 305 312
1733 17 296 305 304 302
1734 17 296 305 304 299
1735 17 316 315 328 327
1736 17 314 315 316 317
1737 17 314 315 328 327
1738 17 328 315 316 329
1739 17 316 315 328 336
1740 17 314 315 316 329
1741 17 314 315 328 336
1742 17 1779 1778 1784 1783
1743 17 1777 1778 1779 1780
1744 17 1777 1778 1784 1783
1745 17 1784 1778 1779 1789
1746 17 1779 1778 1784 1794
1747 17 1777 1778 1779 1789
1748 17 1777 1778 1784 1794
1749 16 304 302 314 315
1750 8 303 302 304 305
1751 16 303 302 314 315
1752 17 316 317 318 319
1753 17 316 317 318 327
1754 17 318 317 316 329
1755 17 2561 2560 2573 2572
1756 17 2559 2560 2561 2562
1757 17 2559 2560 2573 2572
1758 17 2573 2560 2561 2574
1759 17 2561 2560 2573 2581
1760 17 2559 2560 2561 2574
1761 17 2559 2560 2573 2581
1762 17 1793 1783 1784 1794
1763 17 1781 1783 1784 1794
1764 17 1778 1784 1783 1781
1765 17 1778 1784 1783 1793
1766 17 97 98 99 100
1767 17 97 98 99 104
1768 17 99 98 97 110
1769 17 317 316 315 328
1770 17 315 316 317 318
1771 17 329 316 317 330
1772 17 315 316 317 330
1773 17 96 105 104 102
1774 17 96 105 104 99
1775 16 104 102 114 115
1776 8 103 102 104 105
1777 16 103 102 114 115
1778 12 105 104 102 114
1779 8 99 104 102 103
1780 12 99 104 102 114
1781 17 102 104 105 112
1782 17 99 104 105 112
1783 12 104 99 100 114
1784 17 100 99 104 102
1785 17 100 99 104 105
1786 8 98 99 100 101
1787 12 98 99 100 114
1788 17 98 99 104 102
1789 17 98 99 104 105
1790 17 104 99 98 111
1791 17 100 99 98 111
1792 8 101 100 99 104
1793 16 101 100 114 115
1794 16 101 100 114 102
1795 16 99 100 114 115
1796 16 99 100 114 102
1797 11 102 114 115 116
1798 11 102 114 115 128
1799 11 100 114 115 116
1800 11 100 114 115 128
1801 16 100 114 102 103
1802 16 100 114 102 104
1803 17 116 115 128 127
1804 17 114 115 116 117
1805 17 114 115 128 127
1806 17 128 115 116 129
1807 17 116 115 128 136
1808 17 114 115 116 129
1809 17 114 115 128 136
1810 17 117 116 115 128
1811 17 115 116 117 118
1812 17 129 116 117 130
1813 17 115 116 117 130
1814 17 115 128 127 118
1815 17 115 128 127 135
1816 10 1778 1777 1776 1785
1817 10 1776 1777 1778 1779
1818 10 1776 1777 1778 1784
1819 17 2247 2260 2259 2250
1820 17 2247 2260 2259 2269
1821 17 97 96 105 104
1822 17 95 96 97 98
1823 17 95 96 105 104
1824 17 105 96 97 110
1825 17 97 96 105 112
1826 17 95 96 97 110
1827 17 95 96 105 112
1828 17 98 97 96 105
1829 17 96 97 98 99
1830 17 110 97 98 111
1831 17 96 97 98 111
1832 11 1549 1561 1562 1563
1833 11 1549 1561 1562 1575
1834 11 1547 1561 1562 1563
1835 11 1547 1561 1562 1575
1836 16 1547 1561 1549 1550
1837 16 1547 1561 1549 1551
1838 16 1551 1549 1561 1562
1839 8 1550 1549 1551 1552
1840 16 1550 1549 1561 1562
1841 17 1383 1382 1391 1390
1842 17 1381 1382 1383 1384
1843 17 1381 1382 1391 1390
1844 17 1391 1382 1383 1396
1845 17 1383 1382 1391 1398
1846 17 1381 1382 1383 1396
1847 17 1381 1382 1391 1398
1848 8 1534 1535 1554 1553
1849 8 1534 1535 1554 1538
1850 16 1534 1535 1521 1536
1851 12 1521 1535 1554 1553
1852 12 1521 1535 1554 1538
1853 17 1542 1541 1553 1554
1854 10 1540 1541 1542 1543
1855 17 1540 1541 1553 1554
1856 17 1553 1541 1540 1556
1857 17 1542 1541 1540 1556
1858 17 1542 1541 1553 1560
1859 17 1540 1541 1553 1560
1860 17 1538 1554 1553 1541
1861 17 1535 1554 1553 1541
1862 17 1535 1554 1538 1536
1863 17 1535 1554 1538 1539
1864 17 1538 1554 1553 1560
1865 17 1535 1554 1553 1560
1866 8 2086 2085 2087 2088
1867 8 2086 2085 2087 2103
1868 12 2070 2085 2087 2088
1869 12 2070 2085 2087 2103
1870 17 1545 1544 1543 1552
1871 17 1543 1544 1545 1546
1872 17 1557 1544 1545 1558
1873 17 1543 1544 1545 1558
1874 12 1551 1546 1547 1561
1875 17 1547 1546 1551 1549
1876 17 1547 1546 1551 1552
1877 8 1545 1546 1547 1548
1878 12 1545 1546 1547 1561
1879 17 1545 1546 1551 1549
1880 17 1545 1546 1551 1552
1881 17 1551 1546 1545 1558
1882 17 1547 1546 1545 1558
1883 17 1544 1545 1546 1547
1884 17 1544 1545 1546 1551
1885 17 1546 1545 1544 1557
1886 10 1543 1542 1541 1553
1887 10 1541 1542 1543 1544
1888 10 1541 1542 1543 1552
1889 17 1544 1543 1552 1551
1890 17 1542 1543 1544 1545
1891 17 1542 1543 1552 1551
1892 17 1552 1543 1544 1557
1893 17 1544 1543 1552 1559
1894 17 1542 1543 1544 1557
1895 17 1542 1543 1552 1559
1896 12 1552 1551 1549 1561
1897 8 1546 1551 1549 1550
1898 12 1546 1551 1549 1561
1899 17 1549 1551 1552 1559
1900 17 1546 1551 1552 1559
1901 17 1543 1552 1551 1549
1902 17 1543 1552 1551 1546
1903 17 2088 2087 2103 2102
1904 17 2085 2087 2088 2089
1905 17 2085 2087 2103 2102
1906 17 2103 2087 2088 2104
1907 17 2085 2087 2088 2104
1908 17 825 832 830 828
1909 17 825 832 830 831
1910 9 832 830 831 844
1911 17 831 830 832 845
1912 9 828 830 831 844
1913 17 828 830 832 845
1914 17 826 825 832 830
1915 17 824 825 826 827
1916 17 824 825 832 830
1917 2 832 825 824 839
1918 2 832 825 824 840
1919 17 832 825 826 841
1920 2 826 825 824 839
1921 2 826 825 824 840
1922 17 826 825 832 845
1923 17 824 825 826 841
1924 17 824 825 832 845
1925 17 1539 1540 1541 1542
1926 17 1539 1540 1541 1553
1927 17 1541 1540 1539 1555
1928 17 827 826 825 832
1929 17 825 826 827 828
1930 17 841 826 827 842
1931 17 825 826 827 842
1932 17 2087 2103 2102 2090
1933 17 2084 2103 2102 2090
1934 17 2084 2103 2087 2085
1935 17 2084 2103 2087 2088
1936 17 2087 2103 2102 2109
1937 17 2084 2103 2102 2109
1938 16 2085 2070 2084 2103
1939 16 2084 2070 2085 2086
1940 16 2084 2070 2085 2087
1941 16 2069 2070 2084 2083
1942 16 2069 2070 2084 2103
1943 16 2069 2070 2085 2086
1944 16 2069 2070 2085 2087
1945 8 1548 1547 1546 1551
1946 16 1548 1547 1561 1562
1947 16 1548 1547 1561 1549
1948 16 1546 1547 1561 1562
1949 16 1546 1547 1561 1549
1950 17 826 827 828 829
1951 17 826 827 828 830
1952 17 828 827 826 841
1953 12 1391 1390 1388 1400
1954 8 1385 1390 1388 1389
1955 12 1385 1390 1388 1400
1956 17 1388 1390 1391 1398
1957 17 1385 1390 1391 1398
1958 17 829 828 830 831
1959 17 829 828 830 832
1960 17 827 828 830 831
1961 17 827 828 830 832
1962 17 830 828 827 842
1963 9 830 828 829 843
1964 17 829 828 827 842
1965 9 827 828 829 843
1966 8 2083 2084 2103 2102
1967 8 2083 2084 2103 2087
1968 16 2083 2084 2070 2085
1969 12 2070 2084 2103 2102
1970 12 2070 2084 2103 2087
1971 17 2029 2021 2022 2030
1972 17 2019 2021 2022 2030
1973 16 1390 1388 1400 1401
1974 8 1389 1388 1390 1391
1975 16 1389 1388 1400 1401
1976 16 1436 1404 1435 1454
1977 16 1435 1404 1436 1437
1978 16 1435 1404 1436 1438
1979 16 1403 1404 1435 1434
1980 16 1403 1404 1435 1454
1981 16 1403 1404 1436 1437
1982 16 1403 1404 1436 1438
1983 17 1403 1402 1401 1420
1984 17 1401 1402 1403 1404
1985 17 1401 1402 1403 1405
1986 17 2016 2022 2021 2019
1987 17 2016 2022 2021 2029
1988 11 1405 1403 1404 1435
1989 11 1405 1403 1404 1436
1990 17 1404 1403 1405 1406
1991 11 1402 1403 1404 1435
1992 11 1402 1403 1404 1436
1993 17 1402 1403 1405 1406
1994 17 1405 1403 1402 1421
1995 17 1404 1403 1402 1421
1996 17 1404 1403 1405 1422
1997 17 1402 1403 1405 1422
1998 17 1401 1420 1406 1405
1999 17 1401 1420 1406 1407
2000 8 1405 1406 1407 1408
2001 12 1405 1406 1407 1409
2002 17 1420 1406 1405 1422
2003 17 1407 1406 1405 1422
2004 17 1407 1406 1420 1433
2005 17 1405 1406 1420 1433
2006 17 1403 1405 1406 1407
2007 17 1403 1405 1406 1420
2008 12 1409 1407 1406 1420
2009 8 1408 1407 1406 1420
2010 16 1408 1407 1409 1410
2011 16 1406 1407 1409 1410
2012 15 1408 1407 1409 1423
2013 16 1408 1407 1409 1423
2014 16 1406 1407 1409 1423
2015 17 2312 2311 2310 2317
2016 17 2310 2311 2312 2313
2017 17 2326 2311 2312 2327
2018 17 2310 2311 2312 2327
2019 17 2311 2310 2317 2315
2020 17 2309 2310 2311 2312
2021 17 2309 2310 2317 2315
2022 2 2317 2310 2309 2324
2023 2 2317 2310 2309 2325
2024 17 2317 2310 2311 2326
2025 2 2311 2310 2309 2324
2026 2 2311 2310 2309 2325
2027 17 2311 2310 2317 2330
2028 17 2309 2310 2311 2326
2029 17 2309 2310 2317 2330
2030 17 2311 2312 2313 2314
2031 17 2311 2312 2313 2315
2032 17 2313 2312 2311 2326
2033 17 2015 2014 2023 2024
2034 10 2013 2014 2015 2016
2035 17 2013 2014 2023 2024
2036 17 2023 2014 2013 2026
2037 17 2015 2014 2013 2026
2038 17 2015 2014 2023 2031
2039 17 2013 2014 2023 2031
2040 17 2012 2013 2014 2015
2041 17 2012 2013 2014 2023
2042 17 2014 2013 2012 2025
2043 17 2012 2011 2024 2023
2044 17 2010 2011 2012 2013
2045 17 2010 2011 2024 2023
2046 17 2024 2011 2012 2025
2047 17 2012 2011 2024 2032
2048 17 2010 2011 2012 2025
2049 17 2010 2011 2024 2032
2050 17 2013 2012 2011 2024
2051 17 2011 2012 2013 2014
2052 17 2025 2012 2013 2026
2053 17 2011 2012 2013 2026
2054 11 1998 2010 2011 2012
2055 11 1998 2010 2011 2024
2056 11 1996 2010 2011 2012
2057 11 1996 2010 2011 2024
2058 16 1996 2010 1998 1999
2059 16 1996 2010 1998 2000
2060 8 1997 1996 1995 2000
2061 16 1997 1996 2010 2011
2062 16 1997 1996 2010 1998
2063 16 1995 1996 2010 2011
2064 16 1995 1996 2010 1998
2065 16 2000 1998 2010 2011
2066 8 1999 1998 2000 2001
2067 16 1999 1998 2010 2011
2068 17 2011 2024 2023 2014
2069 17 2011 2024 2023 2031
2070 17 2314 2313 2315 2316
2071 17 2314 2313 2315 2317
2072 17 2312 2313 2315 2316
2073 17 2312 2313 2315 2317
2074 17 2315 2313 2312 2327
2075 9 2315 2313 2314 2328
2076 17 2314 2313 2312 2327
2077 9 2312 2313 2314 2328
2078 17 2310 2317 2315 2313
2079 17 2310 2317 2315 2316
2080 9 2317 2315 2316 2329
2081 17 2316 2315 2317 2330
2082 9 2313 2315 2316 2329
2083 17 2313 2315 2317 2330
2084 17 2017 2016 2022 2021
2085 17 2015 2016 2017 2018
2086 17 2015 2016 2022 2021
2087 17 2022 2016 2017 2027
2088 17 2017 2016 2022 2030
2089 17 2015 2016 2017 2027
2090 17 2015 2016 2022 2030
2091 17 1402 1401 1420 1406
2092 17 1400 1401 1402 1403
2093 17 1400 1401 1420 1406
2094 17 1420 1401 1402 1421
2095 17 1402 1401 1420 1433
2096 17 1400 1401 1402 1421
2097 17 1400 1401 1420 1433
2098 11 1388 1400 1401 1402
2099 11 1388 1400 1401 1420
2100 11 1386 1400 1401 1402
2101 11 1386 1400 1401 1420
2102 16 1386 1400 1388 1389
2103 16 1386 1400 1388 1390
2104 13 1407 1409 1410 1411
2105 5 1407 1409 1410 1411
2106 3 1407 1409 1410 1411
2107 1 1423 1409 1410 1424
2108 1 1423 1409 1410 1425
2109 2 1407 1409 1410 1424
2110 2 1407 1409 1410 1425
2111 6 1409 1410 1411 1412
2112 4 1425 1410 1411 1426
2113 4 1425 1410 1411 1427
2114 4 1424 1410 1411 1426
2115 4 1424 1410 1411 1427
2116 1 1411 1410 1409 1423
2117 4 1409 1410 1411 1426
2118 4 1409 1410 1411 1427
2119 17 2222 2235 2234 2225
2120 17 2222 2235 2234 2244
2121 17 2223 2222 2235 2234
2122 17 2221 2222 2223 2224
2123 17 2221 2222 2235 2234
2124 17 2235 2222 2223 2236
2125 17 2223 2222 2235 2245
2126 17 2221 2222 2223 2236
2127 17 2221 2222 2235 2245
2128 17 235 227 228 236
2129 17 218 227 228 236
2130 17 1939 1938 1937 1953
2131 17 1937 1938 1939 1940
2132 17 1954 1938 1939 1955
2133 17 1937 1938 1939 1955
2134 10 2227 2226 2225 2234
2135 10 2225 2226 2227 2228
2136 10 2225 2226 2227 2233
2137 17 2227 2233 2232 2230
2138 17 2227 2233 2232 2242
2139 17 2244 2234 2235 2245
2140 17 2225 2234 2235 2245
2141 17 2226 2225 2234 2235
2142 10 2224 2225 2226 2227
2143 17 2224 2225 2234 2235
2144 17 2234 2225 2224 2237
2145 17 2226 2225 2224 2237
2146 17 2226 2225 2234 2244
2147 17 2224 2225 2234 2244
2148 17 2242 2232 2233 2243
2149 17 2230 2232 2233 2243
2150 17 2228 2227 2233 2232
2151 17 2226 2227 2228 2229
2152 17 2226 2227 2233 2232
2153 17 2233 2227 2228 2238
2154 17 2228 2227 2233 2243
2155 17 2226 2227 2228 2238
2156 17 2226 2227 2233 2243
2157 17 2229 2228 2227 2233
2158 17 2227 2228 2229 2230
2159 17 2238 2228 2229 2239
2160 17 2227 2228 2229 2239
2161 17 2228 2229 2230 2231
2162 17 2228 2229 2230 2232
2163 17 2230 2229 2228 2238
2164 17 2231 2230 2232 2233
2165 17 2229 2230 2232 2233
2166 17 2232 2230 2229 2239
2167 14 2232 2230 2231 2240
2168 14 2232 2230 2231 2241
2169 17 2231 2230 2229 2239
2170 17 2231 2230 2232 2242
2171 14 2229 2230 2231 2240
2172 14 2229 2230 2231 2241
2173 17 2229 2230 2232 2242
2174 17 220 226 225 223
2175 17 220 226 225 233
2176 17 233 225 226 234
2177 17 223 225 226 234
2178 17 1805 1804 1803 1809
2179 17 1803 1804 1805 1806
2180 17 1816 1804 1805 1817
2181 17 1803 1804 1805 1817
2182 17 1804 1805 1806 1807
2183 17 1804 1805 1806 1808
2184 17 1806 1805 1804 1816
2185 17 1827 1826 1842 1841
2186 17 1824 1826 1827 1828
2187 17 1824 1826 1842 1841
2188 17 1842 1826 1827 1843
2189 17 1824 1826 1827 1843
2190 11 1808 1806 1807 1823
2191 11 1808 1806 1807 1824
2192 17 1807 1806 1808 1809
2193 11 1805 1806 1807 1823
2194 11 1805 1806 1807 1824
2195 17 1805 1806 1808 1809
2196 17 1808 1806 1805 1817
2197 17 1807 1806 1805 1817
2198 17 1807 1806 1808 1818
2199 17 1805 1806 1808 1818
2200 17 1818 1808 1809 1819
2201 17 1806 1808 1809 1819
2202 8 1825 1824 1826 1827
2203 8 1825 1824 1826 1842
2204 12 1807 1824 1826 1827
2205 12 1807 1824 1826 1842
2206 16 1824 1807 1823 1842
2207 16 1823 1807 1824 1825
2208 16 1823 1807 1824 1826
2209 16 1806 1807 1823 1822
2210 16 1806 1807 1823 1842
2211 16 1806 1807 1824 1825
2212 16 1806 1807 1824 1826
2213 8 1822 1823 1842 1841
2214 8 1822 1823 1842 1826
2215 16 1822 1823 1807 1824
2216 12 1807 1823 1842 1841
2217 12 1807 1823 1842 1826
2218 17 1826 1842 1841 1829
2219 17 1823 1842 1841 1829
2220 17 1823 1842 1826 1824
2221 17 1823 1842 1826 1827
2222 17 1826 1842 1841 1848
2223 17 1823 1842 1841 1848
2224 17 1828 1827 1826 1842
2225 17 1826 1827 1828 1829
2226 17 1843 1827 1828 1844
2227 17 1826 1827 1828 1844
2228 17 1804 1803 1809 1808
2229 17 1802 1803 1804 1805
2230 17 1802 1803 1809 1808
2231 17 1809 1803 1804 1816
2232 17 1804 1803 1809 1819
2233 17 1802 1803 1804 1816
2234 17 1802 1803 1809 1819
2235 11 225 223 224 238
2236 11 225 223 224 239
2237 17 224 223 225 226
2238 11 222 223 224 238
2239 11 222 223 224 239
2240 17 222 223 225 226
2241 17 225 223 222 232
2242 17 224 223 222 232
2243 17 224 223 225 233
2244 17 222 223 225 233
2245 17 222 221 220 226
2246 17 220 221 222 223
2247 17 231 221 222 232
2248 17 220 221 222 232
2249 17 1803 1809 1808 1806
2250 17 1803 1809 1808 1818
2251 10 220 219 218 227
2252 10 218 219 220 221
2253 10 218 219 220 226
2254 17 221 220 226 225
2255 17 219 220 221 222
2256 17 219 220 226 225
2257 17 226 220 221 231
2258 17 221 220 226 234
2259 17 219 220 221 231
2260 17 219 220 226 234
2261 17 221 222 223 224
2262 17 221 222 223 225
2263 17 223 222 221 231
2264 17 219 218 227 228
2265 10 217 218 219 220
2266 17 217 218 227 228
2267 17 227 218 217 230
2268 17 219 218 217 230
2269 17 219 218 227 235
2270 17 217 218 227 235
2271 10 1803 1802 1801 1810
2272 10 1801 1802 1803 1804
2273 10 1801 1802 1803 1809
2274 17 1827 1828 1829 1830
2275 17 1827 1828 1829 1841
2276 17 1829 1828 1827 1843
2277 17 2137 2153 2152 2140
2278 17 2134 2153 2152 2140
2279 17 2134 2153 2137 2135
2280 17 2134 2153 2137 2138
2281 17 2137 2153 2152 2159
2282 17 2134 2153 2152 2159
2283 16 239 224 238 257
2284 16 238 224 239 240
2285 16 238 224 239 241
2286 16 223 224 238 237
2287 16 223 224 238 257
2288 16 223 224 239 240
2289 16 223 224 239 241
2290 17 2138 2137 2153 2152
2291 17 2135 2137 2138 2139
2292 17 2135 2137 2153 2152
2293 17 2153 2137 2138 2154
2294 17 2135 2137 2138 2154
2295 8 2136 2135 2137 2138
2296 8 2136 2135 2137 2153
2297 12 2120 2135 2137 2138
2298 12 2120 2135 2137 2153
2299 17 2139 2138 2137 2153
2300 17 2137 2138 2139 2140
2301 17 2154 2138 2139 2155
2302 17 2137 2138 2139 2155
2303 17 2081 2073 2074 2082
2304 17 2064 2073 2074 2082
2305 11 2071 2069 2070 2084
2306 11 2071 2069 2070 2085
2307 17 2070 2069 2071 2072
2308 11 2068 2069 2070 2084
2309 11 2068 2069 2070 2085
2310 17 2068 2069 2071 2072
2311 17 2071 2069 2068 2078
2312 17 2070 2069 2068 2078
2313 17 2070 2069 2071 2079
2314 17 2068 2069 2071 2079
2315 17 2067 2068 2069 2070
2316 17 2067 2068 2069 2071
2317 17 2069 2068 2067 2077
2318 17 2079 2071 2072 2080
2319 17 2069 2071 2072 2080
2320 17 1938 1937 1953 1952
2321 17 1935 1937 1938 1939
2322 17 1935 1937 1953 1952
2323 17 1953 1937 1938 1954
2324 17 1935 1937 1938 1954
2325 8 1936 1935 1937 1938
2326 8 1936 1935 1937 1953
2327 12 1920 1935 1937 1938
2328 12 1920 1935 1937 1953
2329 16 1935 1920 1934 1953
2330 16 1934 1920 1935 1936
2331 16 1934 1920 1935 1937
2332 16 1919 1920 1934 1933
2333 16 1919 1920 1934 1953
2334 16 1919 1920 1935 1936
2335 16 1919 1920 1935 1937
2336 17 2068 2067 2066 2072
2337 17 2066 2067 2068 2069
2338 17 2077 2067 2068 2078
2339 17 2066 2067 2068 2078
2340 17 2066 2072 2071 2069
2341 17 2066 2072 2071 2079
2342 10 2066 2065 2064 2073
2343 10 2064 2065 2066 2067
2344 10 2064 2065 2066 2072
2345 17 2067 2066 2072 2071
2346 17 2065 2066 2067 2068
2347 17 2065 2066 2072 2071
2348 17 2072 2066 2067 2077
2349 17 2067 2066 2072 2080
2350 17 2065 2066 2067 2077
2351 17 2065 2066 2072 2080
2352 17 1917 1918 1919 1920
2353 17 1917 1918 1919 1921
2354 17 1919 1918 1917 1927
2355 11 1921 1919 1920 1934
2356 11 1921 1919 1920 1935
2357 17 1920 1919 1921 1922
2358 11 1918 1919 1920 1934
2359 11 1918 1919 1920 1935
2360 17 1918 1919 1921 1922
2361 17 1921 1919 1918 1928
2362 17 1920 1919 1918 1928
2363 17 1920 1919 1921 1929
2364 17 1918 1919 1921 1929
2365 17 1918 1917 1916 1922
2366 17 1916 1917 1918 1919
2367 17 1927 1917 1918 1928
2368 17 1916 1917 1918 1928
2369 17 1917 1916 1922 1921
2370 17 1915 1916 1917 1918
2371 17 1915 1916 1922 1921
2372 17 1922 1916 1917 1927
2373 17 1917 1916 1922 1930
2374 17 1915 1916 1917 1927
2375 17 1915 1916 1922 1930
2376 17 1820 1810 1811 1821
2377 17 1801 1810 1811 1821
2378 17 1798 1811 1810 1801
2379 17 1798 1811 1810 1820
2380 14 16 1 2 15
2381 14 17 1 2 15
2382 14 16 1 2 3
2383 14 17 1 2 3
2384 17 3 4 5 6
2385 17 3 4 5 14
2386 17 5 4 3 18
2387 17 3 2 15 14
2388 17 1 2 3 4
2389 17 1 2 15 14
2390 17 15 2 3 18
2391 17 3 2 15 25
2392 17 1 2 3 18
2393 17 1 2 15 25
2394 17 4 3 2 15
2395 17 2 3 4 5
2396 17 18 3 4 19
2397 17 2 3 4 19
2398 10 1916 1915 1914 1923
2399 10 1914 1915 1916 1917
2400 10 1914 1915 1916 1922
2401 17 1915 1914 1923 1924
2402 10 1913 1914 1915 1916
2403 17 1913 1914 1923 1924
2404 17 1923 1914 1913 1926
2405 17 1915 1914 1913 1926
2406 17 1915 1914 1923 1931
2407 17 1913 1914 1923 1931
2408 17 1802 1801 1810 1811
2409 10 1800 1801 1802 1803
2410 17 1800 1801 1810 1811
2411 17 1810 1801 1800 1815
2412 17 1802 1801 1800 1815
2413 17 1802 1801 1810 1820
2414 17 1800 1801 1810 1820
2415 17 1931 1923 1924 1932
2416 17 1914 1923 1924 1932
2417 17 2138 2139 2140 2141
2418 17 2138 2139 2140 2152
2419 17 2140 2139 2138 2154
2420 17 1937 1953 1952 1940
2421 17 1934 1953 1952 1940
2422 17 1934 1953 1937 1935
2423 17 1934 1953 1937 1938
2424 17 1937 1953 1952 1959
2425 17 1934 1953 1952 1959
2426 17 1916 1922 1921 1919
2427 17 1916 1922 1921 1929
2428 17 1929 1921 1922 1930
2429 17 1919 1921 1922 1930
2430 8 1933 1934 1953 1952
2431 8 1933 1934 1953 1937
2432 16 1933 1934 1920 1935
2433 12 1920 1934 1953 1952
2434 12 1920 1934 1953 1937
2435 17 1539 1538 1554 1553
2436 17 1536 1538 1539 1540
2437 17 1536 1538 1554 1553
2438 17 1554 1538 1539 1555
2439 17 1536 1538 1539 1555
2440 16 1536 1521 1535 1554
2441 16 1535 1521 1536 1537
2442 16 1535 1521 1536 1538
2443 16 1520 1521 1535 1534
2444 16 1520 1521 1535 1554
2445 16 1520 1521 1536 1537
2446 16 1520 1521 1536 1538
2447 17 1540 1539 1538 1554
2448 17 1538 1539 1540 1541
2449 17 1555 1539 1540 1556
2450 17 1538 1539 1540 1556
2451 8 1537 1536 1538 1539
2452 8 1537 1536 1538 1554
2453 12 1521 1536 1538 1539
2454 12 1521 1536 1538 1554
2455 12 1390 1385 1386 1400
2456 17 1386 1385 1390 1388
2457 17 1386 1385 1390 1391
2458 8 1384 1385 1386 1387
2459 12 1384 1385 1386 1400
2460 17 1384 1385 1390 1388
2461 17 1384 1385 1390 1391
2462 17 1390 1385 1384 1397
2463 17 1386 1385 1384 1397
2464 17 1384 1383 1382 1391
2465 17 1382 1383 1384 1385
2466 17 1396 1383 1384 1397
2467 17 1382 1383 1384 1397
2468 17 1383 1384 1385 1386
2469 17 1383 1384 1385 1390
2470 17 1385 1384 1383 1396
2471 8 789 788 790 791
2472 8 789 788 790 806
2473 12 773 788 790 791
2474 12 773 788 790 806
2475 11 774 772 773 787
2476 11 774 772 773 788
2477 17 773 772 774 775
2478 11 771 772 773 787
2479 11 771 772 773 788
2480 17 771 772 774 775
2481 17 774 772 771 781
2482 17 773 772 771 781
2483 17 773 772 774 782
2484 17 771 772 774 782
2485 16 788 773 787 806
2486 16 787 773 788 789
2487 16 787 773 788 790
2488 16 772 773 787 786
2489 16 772 773 787 806
2490 16 772 773 788 789
2491 16 772 773 788 790
2492 17 1146 1145 1144 1153
2493 17 1144 1145 1146 1147
2494 17 1158 1145 1146 1159
2495 17 1144 1145 1146 1159
2496 17 1145 1144 1153 1152
2497 17 1143 1144 1145 1146
2498 17 1143 1144 1153 1152
2499 17 1153 1144 1145 1158
2500 17 1145 1144 1153 1160
2501 17 1143 1144 1145 1158
2502 17 1143 1144 1153 1160
2503 17 1144 1153 1152 1150
2504 17 1144 1153 1152 1147
2505 17 770 771 772 773
2506 17 770 771 772 774
2507 17 772 771 770 780
2508 17 1145 1146 1147 1148
2509 17 1145 1146 1147 1152
2510 17 1147 1146 1145 1158
2511 12 1153 1152 1150 1162
2512 8 1147 1152 1150 1151
2513 12 1147 1152 1150 1162
2514 17 1150 1152 1153 1160
2515 17 1147 1152 1153 1160
2516 17 792 791 790 806
2517 17 790 791 792 793
2518 17 807 791 792 808
2519 17 790 791 792 808
2520 17 791 790 806 805
2521 17 788 790 791 792
2522 17 788 790 806 805
2523 17 806 790 791 807
2524 17 788 790 791 807
2525 12 1152 1147 1148 1162
2526 17 1148 1147 1152 1150
2527 17 1148 1147 1152 1153
2528 8 1146 1147 1148 1149
2529 12 1146 1147 1148 1162
2530 17 1146 1147 1152 1150
2531 17 1146 1147 1152 1153
2532 17 1152 1147 1146 1159
2533 17 1148 1147 1146 1159
2534 10 1144 1143 1142 1154
2535 10 1142 1143 1144 1145
2536 10 1142 1143 1144 1153
2537 16 1152 1150 1162 1163
2538 8 1151 1150 1152 1153
2539 16 1151 1150 1162 1163
2540 17 1143 1142 1154 1155
2541 10 1141 1142 1143 1144
2542 17 1141 1142 1154 1155
2543 17 1154 1142 1141 1157
2544 17 1143 1142 1141 1157
2545 17 1143 1142 1154 1161
2546 17 1141 1142 1154 1161
2547 17 647 646 645 654
2548 17 645 646 647 648
2549 17 659 646 647 660
2550 17 645 646 647 660
2551 17 646 645 654 653
2552 17 644 645 646 647
2553 17 644 645 654 653
2554 17 654 645 646 659
2555 17 646 645 654 661
2556 17 644 645 646 659
2557 17 644 645 654 661
2558 7 1410 1411 1412 1413
2559 7 1410 1411 1412 1419
2560 4 1412 1411 1410 1424
2561 4 1412 1411 1410 1425
2562 8 1387 1386 1385 1390
2563 16 1387 1386 1400 1401
2564 16 1387 1386 1400 1388
2565 16 1385 1386 1400 1401
2566 16 1385 1386 1400 1388
2567 17 1414 1413 1412 1419
2568 17 1412 1413 1414 1415
2569 17 1428 1413 1414 1429
2570 17 1412 1413 1414 1429
2571 17 1413 1412 1419 1417
2572 17 1411 1412 1413 1414
2573 17 1411 1412 1419 1417
2574 2 1419 1412 1411 1426
2575 2 1419 1412 1411 1427
2576 17 1419 1412 1413 1428
2577 2 1413 1412 1411 1426
2578 2 1413 1412 1411 1427
2579 17 1413 1412 1419 1432
2580 17 1411 1412 1413 1428
2581 17 1411 1412 1419 1432
2582 17 646 647 648 649
2583 17 646 647 648 653
2584 17 648 647 646 659
2585 17 645 654 653 651
2586 17 645 654 653 648
2587 12 654 653 651 663
2588 8 648 653 651 652
2589 12 648 653 651 663
2590 17 651 653 654 661
2591 17 648 653 654 661
2592 16 653 651 663 664
2593 8 652 651 653 654
2594 16 652 651 663 664
2595 12 653 648 649 663
2596 17 649 648 653 651
2597 17 649 648 653 654
2598 8 647 648 649 650
2599 12 647 648 649 663
2600 17 647 648 653 651
2601 17 647 648 653 654
2602 17 653 648 647 660
2603 17 649 648 647 660
2604 11 651 663 664 665
2605 11 651 663 664 677
2606 11 649 663 664 665
2607 11 649 663 664 677
2608 16 649 663 651 652
2609 16 649 663 651 653
2610 8 650 649 648 653
2611 16 650 649 663 664
2612 16 650 649 663 651
2613 16 648 649 663 664
2614 16 648 649 663 651
2615 17 1413 1414 1415 1416
2616 17 1413 1414 1415 1417
2617 17 1415 1414 1413 1428
2618 17 665 664 677 676
2619 17 663 664 665 666
2620 17 663 664 677 676
2621 17 677 664 665 678
2622 17 665 664 677 685
2623 17 663 664 665 678
2624 17 663 664 677 685
2625 17 666 665 664 677
2626 17 664 665 666 667
2627 17 678 665 666 679
2628 17 664 665 666 679
2629 17 665 666 667 668
2630 17 665 666 667 676
2631 17 667 666 665 678
2632 17 1416 1415 1417 1418
2633 17 1416 1415 1417 1419
2634 17 1414 1415 1417 1418
2635 17 1414 1415 1417 1419
2636 17 1417 1415 1414 1429
2637 9 1417 1415 1416 1430
2638 17 1416 1415 1414 1429
2639 9 1414 1415 1416 1430
2640 9 1419 1417 1418 1431
2641 17 1418 1417 1419 1432
2642 9 1415 1417 1418 1431
2643 17 1415 1417 1419 1432
2644 17 1412 1419 1417 1415
2645 17 1412 1419 1417 1418
2646 17 1140 1141 1142 1143
2647 17 1140 1141 1142 1154
2648 17 1142 1141 1140 1156
2649 17 1141 1140 1139 1155
2650 17 1139 1140 1141 1142
2651 17 1156 1140 1141 1157
2652 17 1139 1140 1141 1157
2653 17 664 677 676 667
2654 17 664 677 676 684
2655 17 1140 1139 1155 1154
2656 17 1137 1139 1140 1141
2657 17 1137 1139 1155 1154
2658 17 1155 1139 1140 1156
2659 17 1137 1139 1140 1156
2660 17 1139 1155 1154 1142
2661 17 1136 1155 1154 1142
2662 17 1136 1155 1139 1137
2663 17 1136 1155 1139 1140
2664 17 1139 1155 1154 1161
2665 17 1136 1155 1154 1161
2666 17 2223 2224 2225 2226
2667 17 2223 2224 2225 2234
2668 17 2225 2224 2223 2236
2669 17 895 885 886 896
2670 17 883 885 886 896
2671 17 2224 2223 2222 2235
2672 17 2222 2223 2224 2225
2673 17 2236 2223 2224 2237
2674 17 2222 2223 2224 2237
2675 17 1942 1951 1950 1948
2676 17 1942 1951 1950 1945
2677 12 1950 1945 1946 1960
2678 17 1946 1945 1950 1948
2679 17 1946 1945 1950 1951
2680 8 1944 1945 1946 1947
2681 12 1944 1945 1946 1960
2682 17 1944 1945 1950 1948
2683 17 1944 1945 1950 1951
2684 17 1950 1945 1944 1957
2685 17 1946 1945 1944 1957
2686 12 1951 1950 1948 1960
2687 8 1945 1950 1948 1949
2688 12 1945 1950 1948 1960
2689 17 1948 1950 1951 1958
2690 17 1945 1950 1951 1958
2691 8 1947 1946 1945 1950
2692 16 1947 1946 1960 1961
2693 16 1947 1946 1960 1948
2694 16 1945 1946 1960 1961
2695 16 1945 1946 1960 1948
2696 11 1948 1960 1961 1962
2697 11 1948 1960 1961 1974
2698 11 1946 1960 1961 1962
2699 11 1946 1960 1961 1974
2700 16 1946 1960 1948 1949
2701 16 1946 1960 1948 1950
2702 16 1950 1948 1960 1961
2703 8 1949 1948 1950 1951
2704 16 1949 1948 1960 1961
2705 17 1981 1973 1974 1982
2706 17 1964 1973 1974 1982
2707 17 1961 1974 1973 1964
2708 17 1961 1974 1973 1981
2709 17 1965 1964 1973 1974
2710 10 1963 1964 1965 1966
2711 17 1963 1964 1973 1974
2712 17 1973 1964 1963 1976
2713 17 1965 1964 1963 1976
2714 17 1965 1964 1973 1981
2715 17 1963 1964 1973 1981
2716 17 1962 1963 1964 1965
2717 17 1962 1963 1964 1973
2718 17 1964 1963 1962 1975
2719 17 1962 1961 1974 1973
2720 17 1960 1961 1962 1963
2721 17 1960 1961 1974 1973
2722 17 1974 1961 1962 1975
2723 17 1962 1961 1974 1982
2724 17 1960 1961 1962 1975
2725 17 1960 1961 1974 1982
2726 17 1963 1962 1961 1974
2727 17 1961 1962 1963 1964
2728 17 1975 1962 1963 1976
2729 17 1961 1962 1963 1976
2730 17 2141 2140 2152 2153
2731 10 2139 2140 2141 2142
2732 17 2139 2140 2152 2153
2733 17 2152 2140 2139 2155
2734 17 2141 2140 2139 2155
2735 17 2141 2140 2152 2159
2736 17 2139 2140 2152 2159
2737 10 2142 2141 2140 2152
2738 10 2140 2141 2142 2143
2739 10 2140 2141 2142 2151
2740 11 352 364 365 366
2741 11 352 364 365 384
2742 11 350 364 365 366
2743 11 350 364 365 384
2744 16 350 364 352 353
2745 16 350 364 352 354
2746 10 1966 1965 1964 1973
2747 10 1964 1965 1966 1967
2748 10 1964 1965 1966 1972
2749 11 1522 1520 1521 1535
2750 11 1522 1520 1521 1536
2751 17 1521 1520 1522 1523
2752 11 1519 1520 1521 1535
2753 11 1519 1520 1521 1536
2754 17 1519 1520 1522 1523
2755 17 1522 1520 1519 1529
2756 17 1521 1520 1519 1529
2757 17 1521 1520 1522 1530
2758 17 1519 1520 1522 1530
2759 17 771 770 769 775
2760 17 769 770 771 772
2761 17 780 770 771 781
2762 17 769 770 771 781
2763 9 1281 1279 1280 1293
2764 17 1280 1279 1281 1294
2765 9 1277 1279 1280 1293
2766 17 1277 1279 1281 1294
2767 17 782 774 775 783
2768 17 772 774 775 783
2769 17 1278 1277 1279 1280
2770 17 1278 1277 1279 1281
2771 17 1276 1277 1279 1280
2772 17 1276 1277 1279 1281
2773 17 1279 1277 1276 1291
2774 9 1279 1277 1278 1292
2775 17 1278 1277 1276 1291
2776 9 1276 1277 1278 1292
2777 17 1518 1519 1520 1521
2778 17 1518 1519 1520 1522
2779 17 1520 1519 1518 1528
2780 17 1275 1276 1277 1278
2781 17 1275 1276 1277 1279
2782 17 1277 1276 1275 1290
2783 17 2142 2151 2150 2148
2784 17 2142 2151 2150 2145
2785 17 2143 2142 2151 2150
2786 17 2141 2142 2143 2144
2787 17 2141 2142 2151 2150
2788 17 2151 2142 2143 2156
2789 17 2143 2142 2151 2158
2790 17 2141 2142 2143 2156
2791 17 2141 2142 2151 2158
2792 12 2151 2150 2148 2160
2793 8 2145 2150 2148 2149
2794 12 2145 2150 2148 2160
2795 17 2148 2150 2151 2158
2796 17 2145 2150 2151 2158
2797 17 2144 2143 2142 2151
2798 17 2142 2143 2144 2145
2799 17 2156 2143 2144 2157
2800 17 2142 2143 2144 2157
2801 16 2150 2148 2160 2161
2802 8 2149 2148 2150 2151
2803 16 2149 2148 2160 2161
2804 17 2143 2144 2145 2146
2805 17 2143 2144 2145 2150
2806 17 2145 2144 2143 2156
2807 12 2150 2145 2146 2160
2808 17 2146 2145 2150 2148
2809 17 2146 2145 2150 2151
2810 8 2144 2145 2146 2147
2811 12 2144 2145 2146 2160
2812 17 2144 2145 2150 2148
2813 17 2144 2145 2150 2151
2814 17 2150 2145 2144 2157
2815 17 2146 2145 2144 2157
2816 11 2148 2160 2161 2162
2817 11 2148 2160 2161 2180
2818 11 2146 2160 2161 2162
2819 11 2146 2160 2161 2180
2820 16 2146 2160 2148 2149
2821 16 2146 2160 2148 2150
2822 8 2147 2146 2145 2150
2823 16 2147 2146 2160 2161
2824 16 2147 2146 2160 2148
2825 16 2145 2146 2160 2161
2826 16 2145 2146 2160 2148
2827 17 769 775 774 772
2828 17 769 775 774 782
2829 17 770 769 775 774
2830 17 768 769 770 771
2831 17 768 769 775 774
2832 17 775 769 770 780
2833 17 770 769 775 783
2834 17 768 769 770 780
2835 17 768 769 775 783
2836 10 769 768 767 776
2837 10 767 768 769 770
2838 10 767 768 769 775
2839 17 768 767 776 777
2840 10 766 767 768 769
2841 17 766 767 776 777
2842 17 776 767 766 779
2843 17 768 767 766 779
2844 17 768 767 776 784
2845 17 766 767 776 784
2846 17 784 776 777 785
2847 17 767 776 777 785
2848 17 365 384 370 369
2849 17 365 384 370 371
2850 17 765 766 767 768
2851 17 765 766 767 776
2852 17 767 766 765 778
2853 8 351 350 349 354
2854 16 351 350 364 365
2855 16 351 350 364 352
2856 16 349 350 364 365
2857 16 349 350 364 352
2858 17 366 365 384 370
2859 17 364 365 366 367
2860 17 364 365 384 370
2861 17 384 365 366 385
2862 17 366 365 384 397
2863 17 364 365 366 385
2864 17 364 365 384 397
2865 17 764 777 776 767
2866 17 764 777 776 784
2867 8 786 787 806 805
2868 8 786 787 806 790
2869 16 786 787 773 788
2870 12 773 787 806 805
2871 12 773 787 806 790
2872 17 2621 2628 2626 2624
2873 17 2621 2628 2626 2627
2874 17 790 806 805 793
2875 17 787 806 805 793
2876 17 787 806 790 788
2877 17 787 806 790 791
2878 17 790 806 805 812
2879 17 787 806 805 812
2880 17 794 793 805 806
2881 10 792 793 794 795
2882 17 792 793 805 806
2883 17 805 793 792 808
2884 17 794 793 792 808
2885 17 794 793 805 812
2886 17 792 793 805 812
2887 17 791 792 793 794
2888 17 791 792 793 805
2889 17 793 792 791 807
2890 17 2342 2341 2350 2349
2891 17 2340 2341 2342 2343
2892 17 2340 2341 2350 2349
2893 17 2350 2341 2342 2355
2894 17 2342 2341 2350 2357
2895 17 2340 2341 2342 2355
2896 17 2340 2341 2350 2357
2897 10 2341 2340 2339 2351
2898 10 2339 2340 2341 2342
2899 10 2339 2340 2341 2350
2900 17 2340 2339 2351 2352
2901 10 2338 2339 2340 2341
2902 17 2338 2339 2351 2352
2903 17 2351 2339 2338 2354
2904 17 2340 2339 2338 2354
2905 17 2340 2339 2351 2358
2906 17 2338 2339 2351 2358
2907 17 797 796 795 804
2908 17 795 796 797 798
2909 17 809 796 797 810
2910 17 795 796 797 810
2911 17 796 797 798 799
2912 17 796 797 798 803
2913 17 798 797 796 809
2914 10 795 794 793 805
2915 10 793 794 795 796
2916 10 793 794 795 804
2917 17 796 795 804 803
2918 17 794 795 796 797
2919 17 794 795 804 803
2920 17 804 795 796 809
2921 17 796 795 804 811
2922 17 794 795 796 809
2923 17 794 795 804 811
2924 12 803 798 799 813
2925 17 799 798 803 801
2926 17 799 798 803 804
2927 8 797 798 799 800
2928 12 797 798 799 813
2929 17 797 798 803 801
2930 17 797 798 803 804
2931 17 803 798 797 810
2932 17 799 798 797 810
2933 12 804 803 801 813
2934 8 798 803 801 802
2935 12 798 803 801 813
2936 17 801 803 804 811
2937 17 798 803 804 811
2938 17 795 804 803 801
2939 17 795 804 803 798
2940 17 900 913 912 903
2941 17 900 913 912 922
2942 9 2628 2626 2627 2640
2943 17 2627 2626 2628 2641
2944 9 2624 2626 2627 2640
2945 17 2624 2626 2628 2641
2946 8 586 587 606 605
2947 8 586 587 606 590
2948 16 586 587 573 588
2949 12 573 587 606 605
2950 12 573 587 606 590
2951 17 2625 2624 2626 2627
2952 17 2625 2624 2626 2628
2953 17 2623 2624 2626 2627
2954 17 2623 2624 2626 2628
2955 17 2626 2624 2623 2638
2956 9 2626 2624 2625 2639
2957 17 2625 2624 2623 2638
2958 9 2623 2624 2625 2639
2959 16 803 801 813 814
2960 8 802 801 803 804
2961 16 802 801 813 814
2962 17 2337 2338 2339 2340
2963 17 2337 2338 2339 2351
2964 17 2339 2338 2337 2353
2965 17 901 900 913 912
2966 17 899 900 901 902
2967 17 899 900 913 912
2968 14 913 900 899 914
2969 14 913 900 899 915
2970 17 913 900 901 916
2971 14 901 900 899 914
2972 14 901 900 899 915
2973 17 901 900 913 923
2974 17 899 900 901 916
2975 17 899 900 913 923
2976 11 574 572 573 587
2977 11 574 572 573 588
2978 17 573 572 574 575
2979 11 571 572 573 587
2980 11 571 572 573 588
2981 17 571 572 574 575
2982 17 574 572 571 581
2983 17 573 572 571 581
2984 17 573 572 574 582
2985 17 571 572 574 582
2986 17 582 574 575 583
2987 17 572 574 575 583
2988 17 569 575 574 572
2989 17 569 575 574 582
2990 8 800 799 798 803
2991 16 800 799 813 814
2992 16 800 799 813 801
2993 16 798 799 813 814
2994 16 798 799 813 801
2995 17 922 912 913 923
2996 17 903 912 913 923
2997 17 902 901 900 913
2998 17 900 901 902 903
2999 17 916 901 902 917
3000 17 900 901 902 917
3001 17 570 569 575 574
3002 17 568 569 570 571
3003 17 568 569 575 574
3004 17 575 569 570 580
3005 17 570 569 575 583
3006 17 568 569 570 580
3007 17 568 569 575 583
3008 17 570 571 572 573
3009 17 570 571 572 574
3010 17 572 571 570 580
3011 17 571 570 569 575
3012 17 569 570 571 572
3013 17 580 570 571 581
3014 17 569 570 571 581
3015 17 884 883 885 886
3016 17 882 883 885 886
3017 17 885 883 882 892
3018 14 885 883 884 893
3019 14 885 883 884 894
3020 17 884 883 882 892
3021 17 884 883 885 895
3022 14 882 883 884 893
3023 14 882 883 884 894
3024 17 882 883 885 895
3025 17 668 667 676 677
3026 10 666 667 668 669
3027 17 666 667 676 677
3028 17 676 667 666 679
3029 17 668 667 666 679
3030 17 668 667 676 684
3031 17 666 667 676 684
3032 17 684 676 677 685
3033 17 667 676 677 685
3034 17 483 482 494 495
3035 10 481 482 483 484
3036 17 481 482 494 495
3037 17 494 482 481 497
3038 17 483 482 481 497
3039 17 483 482 494 501
3040 17 481 482 494 501
3041 17 480 481 482 483
3042 17 480 481 482 494
3043 17 482 481 480 496
3044 17 481 480 479 495
3045 17 479 480 481 482
3046 17 496 480 481 497
3047 17 479 480 481 497
3048 17 479 495 494 482
3049 17 476 495 494 482
3050 17 476 495 479 477
3051 17 476 495 479 480
3052 17 479 495 494 501
3053 17 476 495 494 501
3054 17 480 479 495 494
3055 17 477 479 480 481
3056 17 477 479 495 494
3057 17 495 479 480 496
3058 17 477 479 480 496
3059 8 478 477 479 480
3060 8 478 477 479 495
3061 12 460 477 479 480
3062 12 460 477 479 495
3063 8 475 476 495 494
3064 8 475 476 495 479
3065 16 475 476 460 477
3066 12 460 476 495 494
3067 12 460 476 495 479
3068 17 877 876 875 888
3069 17 875 876 877 878
3070 17 889 876 877 890
3071 17 875 876 877 890
3072 16 477 460 476 495
3073 16 476 460 477 478
3074 16 476 460 477 479
3075 16 459 460 476 475
3076 16 459 460 476 495
3077 16 459 460 477 478
3078 16 459 460 477 479
3079 11 461 459 460 476
3080 11 461 459 460 477
3081 17 460 459 461 462
3082 11 458 459 460 476
3083 11 458 459 460 477
3084 17 458 459 461 462
3085 17 461 459 458 470
3086 17 460 459 458 470
3087 17 460 459 461 471
3088 17 458 459 461 471
3089 17 471 461 462 472
3090 17 459 461 462 472
3091 17 457 458 459 460
3092 17 457 458 459 461
3093 17 459 458 457 469
3094 17 876 877 878 879
3095 17 876 877 878 887
3096 17 878 877 876 889
3097 16 603 601 613 614
3098 8 602 601 603 604
3099 16 602 601 613 614
3100 11 601 613 614 615
3101 11 601 613 614 627
3102 11 599 613 614 615
3103 11 599 613 614 627
3104 16 599 613 601 602
3105 16 599 613 601 603
3106 17 458 457 456 462
3107 17 456 457 458 459
3108 17 469 457 458 470
3109 17 456 457 458 470
3110 17 595 604 603 601
3111 17 595 604 603 598
3112 17 881 882 883 884
3113 17 881 882 883 885
3114 17 883 882 881 891
3115 17 882 881 880 886
3116 17 880 881 882 883
3117 17 891 881 882 892
3118 17 880 881 882 892
3119 17 456 462 461 459
3120 17 456 462 461 471
3121 12 604 603 601 613
3122 8 598 603 601 602
3123 12 598 603 601 613
3124 17 601 603 604 611
3125 17 598 603 604 611
3126 10 35 34 33 45
3127 10 33 34 35 36
3128 10 33 34 35 44
3129 17 876 875 888 887
3130 17 874 875 876 877
3131 17 874 875 888 887
3132 17 888 875 876 889
3133 17 876 875 888 898
3134 17 874 875 876 889
3135 17 874 875 888 898
3136 10 170 169 168 177
3137 10 168 169 170 171
3138 10 168 169 170 176
3139 17 881 880 886 885
3140 17 879 880 881 882
3141 17 879 880 886 885
3142 17 886 880 881 891
3143 17 881 880 886 896
3144 17 879 880 881 891
3145 17 879 880 886 896
3146 10 880 879 878 887
3147 10 878 879 880 881
3148 10 878 879 880 886
3149 17 879 878 887 888
3150 10 877 878 879 880
3151 17 877 878 887 888
3152 17 887 878 877 890
3153 17 879 878 877 890
3154 17 879 878 887 897
3155 17 877 878 887 897
3156 17 166 167 168 169
3157 17 166 167 168 177
3158 17 168 167 166 179
3159 17 880 886 885 883
3160 17 880 886 885 895
3161 17 169 168 177 178
3162 10 167 168 169 170
3163 17 167 168 177 178
3164 17 177 168 167 180
3165 17 169 168 167 180
3166 17 169 168 177 185
3167 17 167 168 177 185
3168 17 185 177 178 186
3169 17 168 177 178 186
3170 17 167 166 165 178
3171 17 165 166 167 168
3172 17 179 166 167 180
3173 17 165 166 167 180
3174 17 166 165 178 177
3175 17 164 165 166 167
3176 17 164 165 178 177
3177 17 178 165 166 179
3178 17 166 165 178 186
3179 17 164 165 166 179
3180 17 164 165 178 186
3181 17 165 178 177 168
3182 17 165 178 177 185
3183 17 345 344 356 357
3184 10 343 344 345 346
3185 17 343 344 356 357
3186 17 356 344 343 359
3187 17 345 344 343 359
3188 17 345 344 356 363
3189 17 343 344 356 363
3190 10 346 345 344 356
3191 10 344 345 346 347
3192 10 344 345 346 355
3193 17 347 346 355 354
3194 17 345 346 347 348
3195 17 345 346 355 354
3196 17 355 346 347 360
3197 17 347 346 355 362
3198 17 345 346 347 360
3199 17 345 346 355 362
3200 17 346 355 354 352
3201 17 346 355 354 349
3202 17 31 32 33 34
3203 17 31 32 33 45
3204 17 33 32 31 47
3205 11 152 164 165 166
3206 11 152 164 165 178
3207 11 150 164 165 166
3208 11 150 164 165 178
3209 16 150 164 152 153
3210 16 150 164 152 154
3211 16 154 152 164 165
3212 8 153 152 154 155
3213 16 153 152 164 165
3214 8 151 150 149 154
3215 16 151 150 164 165
3216 16 151 150 164 152
3217 16 149 150 164 165
3218 16 149 150 164 152
3219 17 875 888 887 878
3220 17 875 888 887 897
3221 17 897 887 888 898
3222 17 878 887 888 898
3223 12 355 354 352 364
3224 8 349 354 352 353
3225 12 349 354 352 364
3226 17 352 354 355 362
3227 17 349 354 355 362
3228 12 155 154 152 164
3229 8 149 154 152 153
3230 12 149 154 152 164
3231 17 152 154 155 162
3232 17 149 154 155 162
3233 17 146 155 154 152
3234 17 146 155 154 149
3235 12 154 149 150 164
3236 17 150 149 154 152
3237 17 150 149 154 155
3238 8 148 149 150 151
3239 12 148 149 150 164
3240 17 148 149 154 152
3241 17 148 149 154 155
3242 17 154 149 148 161
3243 17 150 149 148 161
3244 17 348 347 346 355
3245 17 346 347 348 349
3246 17 360 347 348 361
3247 17 346 347 348 361
3248 17 32 31 30 46
3249 17 30 31 32 33
3250 17 47 31 32 48
3251 17 30 31 32 48
3252 17 342 343 344 345
3253 17 342 343 344 356
3254 17 344 343 342 358
3255 16 354 352 364 365
3256 8 353 352 354 355
3257 16 353 352 364 365
3258 17 342 341 357 356
3259 17 339 341 342 343
3260 17 339 341 357 356
3261 17 357 341 342 358
3262 17 339 341 342 358
3263 17 347 348 349 350
3264 17 347 348 349 354
3265 17 349 348 347 360
3266 12 354 349 350 364
3267 17 350 349 354 352
3268 17 350 349 354 355
3269 8 348 349 350 351
3270 12 348 349 350 364
3271 17 348 349 354 352
3272 17 348 349 354 355
3273 17 354 349 348 361
3274 17 350 349 348 361
3275 11 862 874 875 876
3276 11 862 874 875 888
3277 11 860 874 875 876
3278 11 860 874 875 888
3279 16 860 874 862 863
3280 16 860 874 862 864
3281 17 34 33 45 46
3282 10 32 33 34 35
3283 17 32 33 45 46
3284 17 45 33 32 48
3285 17 34 33 32 48
3286 17 34 33 45 52
3287 17 32 33 45 52
3288 17 2343 2342 2341 2350
3289 17 2341 2342 2343 2344
3290 17 2355 2342 2343 2356
3291 17 2341 2342 2343 2356
3292 17 2543 2542 2541 2550
3293 17 2541 2542 2543 2544
3294 17 2555 2542 2543 2556
3295 17 2541 2542 2543 2556
3296 17 343 342 341 357
3297 17 341 342 343 344
3298 17 358 342 343 359
3299 17 341 342 343 359
3300 17 565 566 567 568
3301 17 565 566 567 576
3302 17 567 566 565 578
3303 10 569 568 567 576
3304 10 567 568 569 570
3305 10 567 568 569 575
3306 17 2342 2343 2344 2345
3307 17 2342 2343 2344 2349
3308 17 2344 2343 2342 2355
3309 17 545 554 553 551
3310 17 545 554 553 548
3311 17 2542 2543 2544 2545
3312 17 2542 2543 2544 2549
3313 17 2544 2543 2542 2555
3314 17 546 547 548 549
3315 17 546 547 548 553
3316 17 548 547 546 559
3317 12 553 548 549 563
3318 17 549 548 553 551
3319 17 549 548 553 554
3320 8 547 548 549 550
3321 12 547 548 549 563
3322 17 547 548 553 551
3323 17 547 548 553 554
3324 17 553 548 547 560
3325 17 549 548 547 560
3326 12 554 553 551 563
3327 8 548 553 551 552
3328 12 548 553 551 563
3329 17 551 553 554 561
3330 17 548 553 554 561
3331 8 550 549 548 553
3332 16 550 549 563 564
3333 16 550 549 563 551
3334 16 548 549 563 564
3335 16 548 549 563 551
3336 16 553 551 563 564
3337 8 552 551 553 554
3338 16 552 551 563 564
3339 11 551 563 564 565
3340 11 551 563 564 577
3341 11 549 563 564 565
3342 11 549 563 564 577
3343 16 549 563 551 552
3344 16 549 563 551 553
3345 17 766 765 764 777
3346 17 764 765 766 767
3347 17 778 765 766 779
3348 17 764 765 766 779
3349 17 566 565 564 577
3350 17 564 565 566 567
3351 17 578 565 566 579
3352 17 564 565 566 579
3353 17 568 567 576 577
3354 10 566 567 568 569
3355 17 566 567 576 577
3356 17 576 567 566 579
3357 17 568 567 566 579
3358 17 568 567 576 584
3359 17 566 567 576 584
3360 17 565 564 577 576
3361 17 563 564 565 566
3362 17 563 564 577 576
3363 17 577 564 565 578
3364 17 565 564 577 585
3365 17 563 564 565 578
3366 17 563 564 577 585
3367 17 584 576 577 585
3368 17 567 576 577 585
3369 17 564 577 576 567
3370 17 564 577 576 584
3371 17 141 157 156 144
3372 17 138 157 156 144
3373 17 138 157 141 139
3374 17 138 157 141 142
3375 17 141 157 156 163
3376 17 138 157 156 163
3377 17 765 764 777 776
3378 17 763 764 765 766
3379 17 763 764 777 776
3380 17 777 764 765 778
3381 17 765 764 777 785
3382 17 763 764 765 778
3383 17 763 764 777 785
3384 8 137 138 157 156
3385 8 137 138 157 141
3386 16 137 138 124 139
3387 12 124 138 157 156
3388 12 124 138 157 141
3389 11 751 763 764 765
3390 11 751 763 764 777
3391 11 749 763 764 765
3392 11 749 763 764 777
3393 16 749 763 751 752
3394 16 749 763 751 753
3395 16 753 751 763 764
3396 8 752 751 753 754
3397 16 752 751 763 764
3398 17 295 294 306 307
3399 10 293 294 295 296
3400 17 293 294 306 307
3401 17 306 294 293 309
3402 17 295 294 293 309
3403 17 295 294 306 313
3404 17 293 294 306 313
3405 17 292 293 294 295
3406 17 292 293 294 306
3407 17 294 293 292 308
3408 17 2089 2088 2087 2103
3409 17 2087 2088 2089 2090
3410 17 2104 2088 2089 2105
3411 17 2087 2088 2089 2105
3412 7 823 824 825 826
3413 7 823 824 825 832
3414 4 825 824 823 837
3415 4 825 824 823 838
3416 16 588 573 587 606
3417 16 587 573 588 589
3418 16 587 573 588 590
3419 16 572 573 587 586
3420 16 572 573 587 606
3421 16 572 573 588 589
3422 16 572 573 588 590
3423 17 590 606 605 593
3424 17 587 606 605 593
3425 17 587 606 590 588
3426 17 587 606 590 591
3427 17 590 606 605 612
3428 17 587 606 605 612
3429 17 293 292 291 307
3430 17 291 292 293 294
3431 17 308 292 293 309
3432 17 291 292 293 309
3433 17 2091 2090 2102 2103
3434 10 2089 2090 2091 2092
3435 17 2089 2090 2102 2103
3436 17 2102 2090 2089 2105
3437 17 2091 2090 2089 2105
3438 17 2091 2090 2102 2109
3439 17 2089 2090 2102 2109
3440 11 801 813 814 815
3441 11 801 813 814 833
3442 11 799 813 814 815
3443 11 799 813 814 833
3444 16 799 813 801 802
3445 16 799 813 801 803
3446 17 2338 2337 2336 2352
3447 17 2336 2337 2338 2339
3448 17 2353 2337 2338 2354
3449 17 2336 2337 2338 2354
3450 17 2337 2336 2352 2351
3451 17 2334 2336 2337 2338
3452 17 2334 2336 2352 2351
3453 17 2352 2336 2337 2353
3454 17 2334 2336 2337 2353
3455 12 822 820 819 833
3456 8 821 820 819 833
3457 16 821 820 822 823
3458 16 819 820 822 823
3459 15 821 820 822 836
3460 16 821 820 822 836
3461 16 819 820 822 836
3462 13 820 822 823 824
3463 5 820 822 823 824
3464 3 820 822 823 824
3465 1 836 822 823 837
3466 1 836 822 823 838
3467 2 820 822 823 837
3468 2 820 822 823 838
3469 8 818 819 820 821
3470 12 818 819 820 822
3471 17 833 819 818 835
3472 17 820 819 818 835
3473 17 820 819 833 846
3474 17 818 819 833 846
3475 17 814 833 819 818
3476 17 814 833 819 820
3477 17 815 814 833 819
3478 17 813 814 815 816
3479 17 813 814 833 819
3480 17 833 814 815 834
3481 17 815 814 833 846
3482 17 813 814 815 834
3483 17 813 814 833 846
3484 6 822 823 824 825
3485 4 838 823 824 839
3486 4 838 823 824 840
3487 4 837 823 824 839
3488 4 837 823 824 840
3489 1 824 823 822 836
3490 4 822 823 824 839
3491 4 822 823 824 840
3492 17 2088 2089 2090 2091
3493 17 2088 2089 2090 2102
3494 17 2090 2089 2088 2104
3495 10 2092 2091 2090 2102
3496 10 2090 2091 2092 2093
3497 10 2090 2091 2092 2101
3498 8 589 588 590 591
3499 8 589 588 590 606
3500 12 573 588 590 591
3501 12 573 588 590 606
3502 17 591 590 606 605
3503 17 588 590 591 592
3504 17 588 590 606 605
3505 17 606 590 591 607
3506 17 588 590 591 607
3507 17 592 591 590 606
3508 17 590 591 592 593
3509 17 607 591 592 608
3510 17 590 591 592 608
3511 17 591 592 593 594
3512 17 591 592 593 605
3513 17 593 592 591 607
3514 17 292 291 307 306
3515 17 289 291 292 293
3516 17 289 291 307 306
3517 17 307 291 292 308
3518 17 289 291 292 308
3519 8 290 289 291 292
3520 8 290 289 291 307
3521 12 274 289 291 292
3522 12 274 289 291 307
3523 17 271 272 273 274
3524 17 271 272 273 275
3525 17 273 272 271 281
3526 17 291 307 306 294
3527 17 288 307 306 294
3528 17 288 307 291 289
3529 17 288 307 291 292
3530 17 291 307 306 313
3531 17 288 307 306 313
3532 16 289 274 288 307
3533 16 288 274 289 290
3534 16 288 274 289 291
3535 16 273 274 288 287
3536 16 273 274 288 307
3537 16 273 274 289 290
3538 16 273 274 289 291
3539 17 719 725 724 722
3540 17 719 725 724 732
3541 6 2307 2308 2309 2310
3542 4 2323 2308 2309 2324
3543 4 2323 2308 2309 2325
3544 4 2322 2308 2309 2324
3545 4 2322 2308 2309 2325
3546 1 2309 2308 2307 2321
3547 4 2307 2308 2309 2324
3548 4 2307 2308 2309 2325
3549 17 2031 2023 2024 2032
3550 17 2014 2023 2024 2032
3551 10 2016 2015 2014 2023
3552 10 2014 2015 2016 2017
3553 10 2014 2015 2016 2022
3554 17 816 818 819 820
3555 17 816 818 819 833
3556 17 594 593 605 606
3557 10 592 593 594 595
3558 17 592 593 605 606
3559 17 605 593 592 608
3560 17 594 593 592 608
3561 17 594 593 605 612
3562 17 592 593 605 612
3563 17 816 815 814 833
3564 17 814 815 816 817
3565 17 814 815 816 818
3566 11 818 816 817 848
3567 11 818 816 817 849
3568 17 817 816 818 819
3569 11 815 816 817 848
3570 11 815 816 817 849
3571 17 815 816 818 819
3572 17 818 816 815 834
3573 17 817 816 815 834
3574 17 817 816 818 835
3575 17 815 816 818 835
3576 17 853 852 851 867
3577 17 851 852 853 854
3578 17 868 852 853 869
3579 17 851 852 853 869
3580 17 852 853 854 855
3581 17 852 853 854 866
3582 17 854 853 852 868
3583 7 2308 2309 2310 2311
3584 7 2308 2309 2310 2317
3585 4 2310 2309 2308 2322
3586 4 2310 2309 2308 2323
3587 12 603 598 599 613
3588 17 599 598 603 601
3589 17 599 598 603 604
3590 8 597 598 599 600
3591 12 597 598 599 613
3592 17 597 598 603 601
3593 17 597 598 603 604
3594 17 603 598 597 610
3595 17 599 598 597 610
3596 8 600 599 598 603
3597 16 600 599 613 614
3598 16 600 599 613 601
3599 16 598 599 613 614
3600 16 598 599 613 601
3601 8 850 849 851 852
3602 8 850 849 851 867
3603 12 817 849 851 852
3604 12 817 849 851 867
3605 17 852 851 867 866
3606 17 849 851 852 853
3607 17 849 851 867 866
3608 17 867 851 852 868
3609 17 849 851 852 868
3610 16 849 817 848 867
3611 16 848 817 849 850
3612 16 848 817 849 851
3613 16 816 817 848 847
3614 16 816 817 848 867
3615 16 816 817 849 850
3616 16 816 817 849 851
3617 17 851 867 866 854
3618 17 848 867 866 854
3619 17 848 867 851 849
3620 17 848 867 851 852
3621 17 851 867 866 873
3622 17 848 867 866 873
3623 8 847 848 867 866
3624 8 847 848 867 851
3625 16 847 848 817 849
3626 12 817 848 867 866
3627 12 817 848 867 851
3628 17 596 597 598 599
3629 17 596 597 598 603
3630 17 598 597 596 609
3631 17 855 854 866 867
3632 10 853 854 855 856
3633 17 853 854 866 867
3634 17 866 854 853 869
3635 17 855 854 853 869
3636 17 855 854 866 873
3637 17 853 854 866 873
3638 10 856 855 854 866
3639 10 854 855 856 857
3640 10 854 855 856 865
3641 17 596 595 604 603
3642 17 594 595 596 597
3643 17 594 595 604 603
3644 17 604 595 596 609
3645 17 596 595 604 611
3646 17 594 595 596 609
3647 17 594 595 604 611
3648 10 595 594 593 605
3649 10 593 594 595 596
3650 10 593 594 595 604
3651 17 597 596 595 604
3652 17 595 596 597 598
3653 17 609 596 597 610
3654 17 595 596 597 610
3655 17 856 865 864 862
3656 17 856 865 864 859
3657 12 865 864 862 874
3658 8 859 864 862 863
3659 12 859 864 862 874
3660 17 862 864 865 872
3661 17 859 864 865 872
3662 17 857 856 865 864
3663 17 855 856 857 858
3664 17 855 856 865 864
3665 17 865 856 857 870
3666 17 857 856 865 872
3667 17 855 856 857 870
3668 17 855 856 865 872
3669 17 858 857 856 865
3670 17 856 857 858 859
3671 17 870 857 858 871
3672 17 856 857 858 871
3673 16 864 862 874 875
3674 8 863 862 864 865
3675 16 863 862 874 875
3676 12 864 859 860 874
3677 17 860 859 864 862
3678 17 860 859 864 865
3679 8 858 859 860 861
3680 12 858 859 860 874
3681 17 858 859 864 862
3682 17 858 859 864 865
3683 17 864 859 858 871
3684 17 860 859 858 871
3685 17 217 216 215 228
3686 17 215 216 217 218
3687 17 229 216 217 230
3688 17 215 216 217 230
3689 17 216 217 218 219
3690 17 216 217 218 227
3691 17 218 217 216 229
3692 8 861 860 859 864
3693 16 861 860 874 875
3694 16 861 860 874 862
3695 16 859 860 874 875
3696 16 859 860 874 862
3697 17 432 433 434 435
3698 17 432 433 434 436
3699 17 434 433 432 442
3700 17 433 432 431 437
3701 17 431 432 433 434
3702 17 442 432 433 443
3703 17 431 432 433 443
3704 17 31 30 46 45
3705 17 28 30 31 32
3706 17 28 30 46 45
3707 17 46 30 31 47
3708 17 28 30 31 47
3709 17 30 46 45 33
3710 17 27 46 45 33
3711 17 27 46 30 28
3712 17 27 46 30 31
3713 17 30 46 45 52
3714 17 27 46 45 52
3715 17 857 858 859 860
3716 17 857 858 859 864
3717 17 859 858 857 870
3718 17 435 434 436 437
3719 17 433 434 436 437
3720 17 436 434 433 443
3721 14 436 434 435 444
3722 14 436 434 435 445
3723 17 435 434 433 443
3724 17 435 434 436 446
3725 14 433 434 435 444
3726 14 433 434 435 445
3727 17 433 434 436 446
3728 17 431 437 436 434
3729 17 431 437 436 446
3730 17 446 436 437 447
3731 17 434 436 437 447
3732 8 29 28 30 31
3733 8 29 28 30 46
3734 12 11 28 30 31
3735 12 11 28 30 46
3736 17 432 431 437 436
3737 17 430 431 432 433
3738 17 430 431 437 436
3739 17 437 431 432 442
3740 17 432 431 437 447
3741 17 430 431 432 442
3742 17 430 431 437 447
3743 8 26 27 46 45
3744 8 26 27 46 30
3745 16 26 27 11 28
3746 12 11 27 46 45
3747 12 11 27 46 30
3748 16 28 11 27 46
3749 16 27 11 28 29
3750 16 27 11 28 30
3751 16 10 11 27 26
3752 16 10 11 27 46
3753 16 10 11 28 29
3754 16 10 11 28 30
3755 11 12 10 11 27
3756 11 12 10 11 28
3757 17 11 10 12 13
3758 11 9 10 11 27
3759 11 9 10 11 28
3760 17 9 10 12 13
3761 17 12 10 9 21
3762 17 11 10 9 21
3763 17 11 10 12 22
3764 17 9 10 12 22
3765 17 8 9 10 11
3766 17 8 9 10 12
3767 17 10 9 8 20
3768 17 9 8 7 13
3769 17 7 8 9 10
3770 17 20 8 9 21
3771 17 7 8 9 21
3772 17 22 12 13 23
3773 17 10 12 13 23
3774 17 7 13 12 10
3775 17 7 13 12 22
3776 17 8 7 13 12
3777 17 6 7 8 9
3778 17 6 7 13 12
3779 17 13 7 8 20
3780 17 8 7 13 23
3781 17 6 7 8 20
3782 17 6 7 13 23
3783 17 6 5 14 15
3784 10 4 5 6 7
3785 17 4 5 14 15
3786 17 14 5 4 19
3787 17 6 5 4 19
3788 17 6 5 14 24
3789 17 4 5 14 24
3790 17 2 15 14 5
3791 17 2 15 14 24
3792 10 7 6 5 14
3793 10 5 6 7 8
3794 10 5 6 7 13
3795 8 340 339 341 342
3796 8 340 339 341 357
3797 12 324 339 341 342
3798 12 324 339 341 357
3799 17 135 127 128 136
3800 17 118 127 128 136
3801 17 116 117 118 119
3802 17 116 117 118 127
3803 17 118 117 116 129
3804 17 119 118 127 128
3805 10 117 118 119 120
3806 17 117 118 127 128
3807 17 127 118 117 130
3808 17 119 118 117 130
3809 17 119 118 127 135
3810 17 117 118 127 135
3811 17 272 271 270 276
3812 17 270 271 272 273
3813 17 281 271 272 282
3814 17 270 271 272 282
3815 17 1799 1800 1801 1802
3816 17 1799 1800 1801 1810
3817 17 1801 1800 1799 1814
3818 17 1800 1799 1798 1811
3819 17 1798 1799 1800 1801
3820 17 1814 1799 1800 1815
3821 17 1798 1799 1800 1815
3822 17 1799 1798 1811 1810
3823 17 1797 1798 1799 1800
3824 17 1797 1798 1811 1810
3825 14 1811 1798 1797 1812
3826 14 1811 1798 1797 1813
3827 17 1811 1798 1799 1814
3828 14 1799 1798 1797 1812
3829 14 1799 1798 1797 1813
3830 17 1799 1798 1811 1821
3831 17 1797 1798 1799 1814
3832 17 1797 1798 1811 1821
3833 8 287 288 307 306
3834 8 287 288 307 291
3835 16 287 288 274 289
3836 12 274 288 307 306
3837 12 274 288 307 291
3838 17 120 126 125 123
3839 17 120 126 125 133
3840 17 121 122 123 124
3841 17 121 122 123 125
3842 17 123 122 121 131
3843 17 121 120 126 125
3844 17 119 120 121 122
3845 17 119 120 126 125
3846 17 126 120 121 131
3847 17 121 120 126 134
3848 17 119 120 121 131
3849 17 119 120 126 134
3850 17 122 121 120 126
3851 17 120 121 122 123
3852 17 131 121 122 132
3853 17 120 121 122 132
3854 10 120 119 118 127
3855 10 118 119 120 121
3856 10 118 119 120 126
3857 17 142 141 157 156
3858 17 139 141 142 143
3859 17 139 141 157 156
3860 17 157 141 142 158
3861 17 139 141 142 158
3862 16 139 124 138 157
3863 16 138 124 139 140
3864 16 138 124 139 141
3865 16 123 124 138 137
3866 16 123 124 138 157
3867 16 123 124 139 140
3868 16 123 124 139 141
3869 17 133 125 126 134
3870 17 123 125 126 134
3871 8 140 139 141 142
3872 8 140 139 141 157
3873 12 124 139 141 142
3874 12 124 139 141 157
3875 17 24 14 15 25
3876 17 5 14 15 25
3877 11 125 123 124 138
3878 11 125 123 124 139
3879 17 124 123 125 126
3880 11 122 123 124 138
3881 11 122 123 124 139
3882 17 122 123 125 126
3883 17 125 123 122 132
3884 17 124 123 122 132
3885 17 124 123 125 133
3886 17 122 123 125 133
3887 11 275 273 274 288
3888 11 275 273 274 289
3889 17 274 273 275 276
3890 11 272 273 274 288
3891 11 272 273 274 289
3892 17 272 273 275 276
3893 17 275 273 272 282
3894 17 274 273 272 282
3895 17 274 273 275 283
3896 17 272 273 275 283
3897 17 283 275 276 284
3898 17 273 275 276 284
3899 17 271 270 276 275
3900 17 269 270 271 272
3901 17 269 270 276 275
3902 17 276 270 271 281
3903 17 271 270 276 284
3904 17 269 270 271 281
3905 17 269 270 276 284
3906 17 270 276 275 273
3907 17 270 276 275 283
3908 10 270 269 268 277
3909 10 268 269 270 271
3910 10 268 269 270 276
3911 10 1044 1043 1042 1054
3912 10 1042 1043 1044 1045
3913 10 1042 1043 1044 1053
3914 17 1043 1042 1054 1055
3915 10 1041 1042 1043 1044
3916 17 1041 1042 1054 1055
3917 17 1054 1042 1041 1057
3918 17 1043 1042 1041 1057
3919 17 1043 1042 1054 1061
3920 17 1041 1042 1054 1061
3921 17 1040 1041 1042 1043
3922 17 1040 1041 1042 1054
3923 17 1042 1041 1040 1056
3924 17 1041 1040 1039 1055
3925 17 1039 1040 1041 1042
3926 17 1056 1040 1041 1057
3927 17 1039 1040 1041 1057
3928 17 1612 1625 1624 1615
3929 17 1612 1625 1624 1632
3930 17 1632 1624 1625 1633
3931 17 1615 1624 1625 1633
3932 17 1613 1612 1625 1624
3933 17 1611 1612 1613 1614
3934 17 1611 1612 1625 1624
3935 17 1625 1612 1613 1626
3936 17 1613 1612 1625 1633
3937 17 1611 1612 1613 1626
3938 17 1611 1612 1625 1633
3939 8 1296 1297 1316 1315
3940 8 1296 1297 1316 1300
3941 16 1296 1297 1266 1298
3942 12 1266 1297 1316 1315
3943 12 1266 1297 1316 1300
3944 17 1300 1316 1315 1303
3945 17 1297 1316 1315 1303
3946 17 1297 1316 1300 1298
3947 17 1297 1316 1300 1301
3948 17 1300 1316 1315 1322
3949 17 1297 1316 1315 1322
3950 17 1265 1264 1263 1282
3951 17 1263 1264 1265 1266
3952 17 1263 1264 1265 1267
3953 17 1264 1263 1282 1268
3954 17 1262 1263 1264 1265
3955 17 1262 1263 1282 1268
3956 17 1282 1263 1264 1283
3957 17 1264 1263 1282 1295
3958 17 1262 1263 1264 1283
3959 17 1262 1263 1282 1295
3960 16 1298 1266 1297 1316
3961 16 1297 1266 1298 1299
3962 16 1297 1266 1298 1300
3963 16 1265 1266 1297 1296
3964 16 1265 1266 1297 1316
3965 16 1265 1266 1298 1299
3966 16 1265 1266 1298 1300
3967 11 1267 1265 1266 1297
3968 11 1267 1265 1266 1298
3969 17 1266 1265 1267 1268
3970 11 1264 1265 1266 1297
3971 11 1264 1265 1266 1298
3972 17 1264 1265 1267 1268
3973 17 1267 1265 1264 1283
3974 17 1266 1265 1264 1283
3975 17 1266 1265 1267 1284
3976 17 1264 1265 1267 1284
3977 8 1299 1298 1300 1301
3978 8 1299 1298 1300 1316
3979 12 1266 1298 1300 1301
3980 12 1266 1298 1300 1316
3981 17 1301 1300 1316 1315
3982 17 1298 1300 1301 1302
3983 17 1298 1300 1316 1315
3984 17 1316 1300 1301 1317
3985 17 1298 1300 1301 1317
3986 17 1263 1282 1268 1267
3987 17 1263 1282 1268 1269
3988 17 1265 1267 1268 1269
3989 17 1265 1267 1268 1282
3990 11 1250 1262 1263 1264
3991 11 1250 1262 1263 1282
3992 11 1248 1262 1263 1264
3993 11 1248 1262 1263 1282
3994 16 1248 1262 1250 1251
3995 16 1248 1262 1250 1252
3996 16 1252 1250 1262 1263
3997 8 1251 1250 1252 1253
3998 16 1251 1250 1262 1263
3999 11 1599 1611 1612 1613
4000 11 1599 1611 1612 1625
4001 11 1597 1611 1612 1613
4002 11 1597 1611 1612 1625
4003 16 1597 1611 1599 1600
4004 16 1597 1611 1599 1601
4005 8 1267 1268 1269 1270
4006 12 1267 1268 1269 1271
4007 17 1282 1268 1267 1284
4008 17 1269 1268 1267 1284
4009 17 1269 1268 1282 1295
4010 17 1267 1268 1282 1295
4011 8 1249 1248 1247 1252
4012 16 1249 1248 1262 1263
4013 16 1249 1248 1262 1250
4014 16 1247 1248 1262 1263
4015 16 1247 1248 1262 1250
4016 17 1616 1615 1624 1625
4017 10 1614 1615 1616 1617
4018 17 1614 1615 1624 1625
4019 17 1624 1615 1614 1627
4020 17 1616 1615 1614 1627
4021 17 1616 1615 1624 1632
4022 17 1614 1615 1624 1632
4023 17 1618 1617 1623 1622
4024 17 1616 1617 1618 1619
4025 17 1616 1617 1623 1622
4026 17 1623 1617 1618 1628
4027 17 1618 1617 1623 1631
4028 17 1616 1617 1618 1628
4029 17 1616 1617 1623 1631
4030 8 1598 1597 1596 1601
4031 16 1598 1597 1611 1612
4032 16 1598 1597 1611 1599
4033 16 1596 1597 1611 1612
4034 16 1596 1597 1611 1599
4035 17 1304 1303 1315 1316
4036 10 1302 1303 1304 1305
4037 17 1302 1303 1315 1316
4038 17 1315 1303 1302 1318
4039 17 1304 1303 1302 1318
4040 17 1304 1303 1315 1322
4041 17 1302 1303 1315 1322
4042 12 1271 1269 1268 1282
4043 8 1270 1269 1268 1282
4044 16 1270 1269 1271 1272
4045 16 1268 1269 1271 1272
4046 15 1270 1269 1271 1285
4047 16 1270 1269 1271 1285
4048 16 1268 1269 1271 1285
4049 17 1619 1618 1617 1623
4050 17 1617 1618 1619 1620
4051 17 1628 1618 1619 1629
4052 17 1617 1618 1619 1629
4053 12 2001 2000 1998 2010
4054 8 1995 2000 1998 1999
4055 12 1995 2000 1998 2010
4056 17 1998 2000 2001 2008
4057 17 1995 2000 2001 2008
4058 12 2000 1995 1996 2010
4059 17 1996 1995 2000 1998
4060 17 1996 1995 2000 2001
4061 8 1994 1995 1996 1997
4062 12 1994 1995 1996 2010
4063 17 1994 1995 2000 1998
4064 17 1994 1995 2000 2001
4065 17 2000 1995 1994 2007
4066 17 1996 1995 1994 2007
4067 17 1045 1044 1053 1052
4068 17 1043 1044 1045 1046
4069 17 1043 1044 1053 1052
4070 17 1053 1044 1045 1058
4071 17 1045 1044 1053 1060
4072 17 1043 1044 1045 1058
4073 17 1043 1044 1053 1060
4074 17 1044 1053 1052 1050
4075 17 1044 1053 1052 1047
4076 17 1993 1994 1995 1996
4077 17 1993 1994 1995 2000
4078 17 1995 1994 1993 2006
4079 17 1992 2001 2000 1998
4080 17 1992 2001 2000 1995
4081 17 1305 1314 1313 1311
4082 17 1305 1314 1313 1308
4083 17 1994 1993 1992 2001
4084 17 1992 1993 1994 1995
4085 17 2006 1993 1994 2007
4086 17 1992 1993 1994 2007
4087 17 1993 1992 2001 2000
4088 17 1991 1992 1993 1994
4089 17 1991 1992 2001 2000
4090 17 2001 1992 1993 2006
4091 17 1993 1992 2001 2008
4092 17 1991 1992 1993 2006
4093 17 1991 1992 2001 2008
4094 12 1052 1047 1048 1062
4095 17 1048 1047 1052 1050
4096 17 1048 1047 1052 1053
4097 8 1046 1047 1048 1049
4098 12 1046 1047 1048 1062
4099 17 1046 1047 1052 1050
4100 17 1046 1047 1052 1053
4101 17 1052 1047 1046 1059
4102 17 1048 1047 1046 1059
4103 17 1326 1325 1324 1337
4104 17 1324 1325 1326 1327
4105 17 1338 1325 1326 1339
4106 17 1324 1325 1326 1339
4107 16 1313 1311 1323 1324
4108 8 1312 1311 1313 1314
4109 16 1312 1311 1323 1324
4110 8 1049 1048 1047 1052
4111 16 1049 1048 1062 1063
4112 16 1049 1048 1062 1050
4113 16 1047 1048 1062 1063
4114 16 1047 1048 1062 1050
4115 17 1325 1324 1337 1336
4116 17 1323 1324 1325 1326
4117 17 1323 1324 1337 1336
4118 17 1337 1324 1325 1338
4119 17 1325 1324 1337 1347
4120 17 1323 1324 1325 1338
4121 17 1323 1324 1337 1347
4122 11 1311 1323 1324 1325
4123 11 1311 1323 1324 1337
4124 11 1309 1323 1324 1325
4125 11 1309 1323 1324 1337
4126 16 1309 1323 1311 1312
4127 16 1309 1323 1311 1313
4128 12 1053 1052 1050 1062
4129 8 1047 1052 1050 1051
4130 12 1047 1052 1050 1062
4131 17 1050 1052 1053 1060
4132 17 1047 1052 1053 1060
4133 16 1052 1050 1062 1063
4134 8 1051 1050 1052 1053
4135 16 1051 1050 1062 1063
4136 11 1050 1062 1063 1064
4137 11 1050 1062 1063 1076
4138 11 1048 1062 1063 1064
4139 11 1048 1062 1063 1076
4140 16 1048 1062 1050 1051
4141 16 1048 1062 1050 1052
4142 17 1064 1063 1076 1075
4143 17 1062 1063 1064 1065
4144 17 1062 1063 1076 1075
4145 17 1076 1063 1064 1077
4146 17 1064 1063 1076 1084
4147 17 1062 1063 1064 1077
4148 17 1062 1063 1076 1084
4149 17 1063 1076 1075 1066
4150 17 1063 1076 1075 1083
4151 17 1618 1619 1620 1621
4152 17 1618 1619 1620 1622
4153 17 1620 1619 1618 1628
4154 17 1324 1337 1336 1327
4155 17 1324 1337 1336 1346
4156 12 1314 1313 1311 1323
4157 8 1308 1313 1311 1312
4158 12 1308 1313 1311 1323
4159 17 1311 1313 1314 1321
4160 17 1308 1313 1314 1321
4161 17 1046 1045 1044 1053
4162 17 1044 1045 1046 1047
4163 17 1058 1045 1046 1059
4164 17 1044 1045 1046 1059
4165 17 1083 1075 1076 1084
4166 17 1066 1075 1076 1084
4167 17 1346 1336 1337 1347
4168 17 1327 1336 1337 1347
4169 17 1045 1046 1047 1048
4170 17 1045 1046 1047 1052
4171 17 1047 1046 1045 1058
4172 17 1065 1064 1063 1076
4173 17 1063 1064 1065 1066
4174 17 1077 1064 1065 1078
4175 17 1063 1064 1065 1078
4176 8 1310 1309 1308 1313
4177 16 1310 1309 1323 1324
4178 16 1310 1309 1323 1311
4179 16 1308 1309 1323 1324
4180 16 1308 1309 1323 1311
4181 10 1992 1991 1990 2002
4182 10 1990 1991 1992 1993
4183 10 1990 1991 1992 2001
4184 17 1325 1326 1327 1328
4185 17 1325 1326 1327 1336
4186 17 1327 1326 1325 1338
4187 17 1830 1829 1841 1842
4188 10 1828 1829 1830 1831
4189 17 1828 1829 1841 1842
4190 17 1841 1829 1828 1844
4191 17 1830 1829 1828 1844
4192 17 1830 1829 1841 1848
4193 17 1828 1829 1841 1848
4194 17 1991 1990 2002 2003
4195 10 1989 1990 1991 1992
4196 17 1989 1990 2002 2003
4197 17 2002 1990 1989 2005
4198 17 1991 1990 1989 2005
4199 17 1991 1990 2002 2009
4200 17 1989 1990 2002 2009
4201 8 240 239 241 242
4202 8 240 239 241 257
4203 12 224 239 241 242
4204 12 224 239 241 257
4205 10 1831 1830 1829 1841
4206 10 1829 1830 1831 1832
4207 10 1829 1830 1831 1840
4208 17 1328 1327 1336 1337
4209 10 1326 1327 1328 1329
4210 17 1326 1327 1336 1337
4211 17 1336 1327 1326 1339
4212 17 1328 1327 1326 1339
4213 17 1328 1327 1336 1346
4214 17 1326 1327 1336 1346
4215 17 1831 1840 1839 1837
4216 17 1831 1840 1839 1834
4217 17 1832 1831 1840 1839
4218 17 1830 1831 1832 1833
4219 17 1830 1831 1840 1839
4220 17 1840 1831 1832 1845
4221 17 1832 1831 1840 1847
4222 17 1830 1831 1832 1845
4223 17 1830 1831 1840 1847
4224 17 1988 1989 1990 1991
4225 17 1988 1989 1990 2002
4226 17 1990 1989 1988 2004
4227 17 1989 1988 1987 2003
4228 17 1987 1988 1989 1990
4229 17 2004 1988 1989 2005
4230 17 1987 1988 1989 2005
4231 17 2129 2121 2122 2130
4232 17 2119 2121 2122 2130
4233 17 1833 1832 1831 1840
4234 17 1831 1832 1833 1834
4235 17 1845 1832 1833 1846
4236 17 1831 1832 1833 1846
4237 17 1850 1869 1855 1854
4238 17 1850 1869 1855 1856
4239 16 1839 1837 1849 1850
4240 8 1838 1837 1839 1840
4241 16 1838 1837 1849 1850
4242 17 1851 1850 1869 1855
4243 17 1849 1850 1851 1852
4244 17 1849 1850 1869 1855
4245 17 1869 1850 1851 1870
4246 17 1851 1850 1869 1882
4247 17 1849 1850 1851 1870
4248 17 1849 1850 1869 1882
4249 12 1840 1839 1837 1849
4250 8 1834 1839 1837 1838
4251 12 1834 1839 1837 1849
4252 17 1837 1839 1840 1847
4253 17 1834 1839 1840 1847
4254 11 1837 1849 1850 1851
4255 11 1837 1849 1850 1869
4256 11 1835 1849 1850 1851
4257 11 1835 1849 1850 1869
4258 16 1835 1849 1837 1838
4259 16 1835 1849 1837 1839
4260 12 1839 1834 1835 1849
4261 17 1835 1834 1839 1837
4262 17 1835 1834 1839 1840
4263 8 1833 1834 1835 1836
4264 12 1833 1834 1835 1849
4265 17 1833 1834 1839 1837
4266 17 1833 1834 1839 1840
4267 17 1839 1834 1833 1846
4268 17 1835 1834 1833 1846
4269 8 1836 1835 1834 1839
4270 16 1836 1835 1849 1850
4271 16 1836 1835 1849 1837
4272 16 1834 1835 1849 1850
4273 16 1834 1835 1849 1837
4274 17 1852 1851 1850 1869
4275 17 1850 1851 1852 1853
4276 17 1850 1851 1852 1854
4277 17 2116 2122 2121 2119
4278 17 2116 2122 2121 2129
4279 17 1832 1833 1834 1835
4280 17 1832 1833 1834 1839
4281 17 1834 1833 1832 1845
4282 11 2121 2119 2120 2134
4283 11 2121 2119 2120 2135
4284 17 2120 2119 2121 2122
4285 11 2118 2119 2120 2134
4286 11 2118 2119 2120 2135
4287 17 2118 2119 2121 2122
4288 17 2121 2119 2118 2128
4289 17 2120 2119 2118 2128
4290 17 2120 2119 2121 2129
4291 17 2118 2119 2121 2129
4292 8 2133 2134 2153 2152
4293 8 2133 2134 2153 2137
4294 16 2133 2134 2120 2135
4295 12 2120 2134 2153 2152
4296 12 2120 2134 2153 2137
4297 16 2135 2120 2134 2153
4298 16 2134 2120 2135 2136
4299 16 2134 2120 2135 2137
4300 16 2119 2120 2134 2133
4301 16 2119 2120 2134 2153
4302 16 2119 2120 2135 2136
4303 16 2119 2120 2135 2137
4304 10 1329 1328 1327 1336
4305 10 1327 1328 1329 1330
4306 10 1327 1328 1329 1335
4307 11 1854 1852 1853 1884
4308 11 1854 1852 1853 1885
4309 17 1853 1852 1854 1855
4310 11 1851 1852 1853 1884
4311 11 1851 1852 1853 1885
4312 17 1851 1852 1854 1855
4313 17 1854 1852 1851 1870
4314 17 1853 1852 1851 1870
4315 17 1853 1852 1854 1871
4316 17 1851 1852 1854 1871
4317 17 2117 2116 2122 2121
4318 17 2115 2116 2117 2118
4319 17 2115 2116 2122 2121
4320 17 2122 2116 2117 2127
4321 17 2117 2116 2122 2130
4322 17 2115 2116 2117 2127
4323 17 2115 2116 2122 2130
4324 8 1854 1855 1856 1857
4325 12 1854 1855 1856 1858
4326 17 1869 1855 1854 1871
4327 17 1856 1855 1854 1871
4328 17 1856 1855 1869 1882
4329 17 1854 1855 1869 1882
4330 17 243 242 241 257
4331 17 241 242 243 244
4332 17 258 242 243 259
4333 17 241 242 243 259
4334 17 242 241 257 256
4335 17 239 241 242 243
4336 17 239 241 257 256
4337 17 257 241 242 258
4338 17 239 241 242 258
4339 17 1912 1913 1914 1915
4340 17 1912 1913 1914 1923
4341 17 1914 1913 1912 1925
4342 17 2117 2118 2119 2120
4343 17 2117 2118 2119 2121
4344 17 2119 2118 2117 2127
4345 10 2116 2115 2114 2123
4346 10 2114 2115 2116 2117
4347 10 2114 2115 2116 2122
4348 17 2118 2117 2116 2122
4349 17 2116 2117 2118 2119
4350 17 2127 2117 2118 2128
4351 17 2116 2117 2118 2128
4352 13 1269 1271 1272 1273
4353 5 1269 1271 1272 1273
4354 3 1269 1271 1272 1273
4355 1 1285 1271 1272 1286
4356 1 1285 1271 1272 1287
4357 2 1269 1271 1272 1286
4358 2 1269 1271 1272 1287
4359 17 1911 1924 1923 1914
4360 17 1911 1924 1923 1931
4361 17 2115 2114 2123 2124
4362 10 2113 2114 2115 2116
4363 17 2113 2114 2123 2124
4364 17 2123 2114 2113 2126
4365 17 2115 2114 2113 2126
4366 17 2115 2114 2123 2131
4367 17 2113 2114 2123 2131
4368 17 2131 2123 2124 2132
4369 17 2114 2123 2124 2132
4370 17 1913 1912 1911 1924
4371 17 1911 1912 1913 1914
4372 17 1925 1912 1913 1926
4373 17 1911 1912 1913 1926
4374 17 1912 1911 1924 1923
4375 17 1910 1911 1912 1913
4376 17 1910 1911 1924 1923
4377 17 1924 1911 1912 1925
4378 17 1912 1911 1924 1932
4379 17 1910 1911 1912 1925
4380 17 1910 1911 1924 1932
4381 11 1898 1910 1911 1912
4382 11 1898 1910 1911 1924
4383 11 1896 1910 1911 1912
4384 11 1896 1910 1911 1924
4385 16 1896 1910 1898 1899
4386 16 1896 1910 1898 1900
4387 16 1900 1898 1910 1911
4388 8 1899 1898 1900 1901
4389 16 1899 1898 1910 1911
4390 8 1897 1896 1895 1900
4391 16 1897 1896 1910 1911
4392 16 1897 1896 1910 1898
4393 16 1895 1896 1910 1911
4394 16 1895 1896 1910 1898
4395 17 2111 2124 2123 2114
4396 17 2111 2124 2123 2131
4397 6 1271 1272 1273 1274
4398 4 1287 1272 1273 1288
4399 4 1287 1272 1273 1289
4400 4 1286 1272 1273 1288
4401 4 1286 1272 1273 1289
4402 1 1273 1272 1271 1285
4403 4 1271 1272 1273 1288
4404 4 1271 1272 1273 1289
4405 12 1901 1900 1898 1910
4406 8 1895 1900 1898 1899
4407 12 1895 1900 1898 1910
4408 17 1898 1900 1901 1908
4409 17 1895 1900 1901 1908
4410 12 1900 1895 1896 1910
4411 17 1896 1895 1900 1898
4412 17 1896 1895 1900 1901
4413 8 1894 1895 1896 1897
4414 12 1894 1895 1896 1910
4415 17 1894 1895 1900 1898
4416 17 1894 1895 1900 1901
4417 17 1900 1895 1894 1907
4418 17 1896 1895 1894 1907
4419 17 1892 1901 1900 1898
4420 17 1892 1901 1900 1895
4421 17 1893 1894 1895 1896
4422 17 1893 1894 1895 1900
4423 17 1895 1894 1893 1906
4424 7 1721 1722 1723 1724
4425 7 1721 1722 1723 1730
4426 4 1723 1722 1721 1735
4427 4 1723 1722 1721 1736
4428 6 1720 1721 1722 1723
4429 4 1736 1721 1722 1737
4430 4 1736 1721 1722 1738
4431 4 1735 1721 1722 1737
4432 4 1735 1721 1722 1738
4433 1 1722 1721 1720 1734
4434 4 1720 1721 1722 1737
4435 4 1720 1721 1722 1738
4436 17 1893 1892 1901 1900
4437 17 1891 1892 1893 1894
4438 17 1891 1892 1901 1900
4439 17 1901 1892 1893 1906
4440 17 1893 1892 1901 1908
4441 17 1891 1892 1893 1906
4442 17 1891 1892 1901 1908
4443 17 1724 1723 1730 1728
4444 17 1722 1723 1724 1725
4445 17 1722 1723 1730 1728
4446 2 1730 1723 1722 1737
4447 2 1730 1723 1722 1738
4448 17 1730 1723 1724 1739
4449 2 1724 1723 1722 1737
4450 2 1724 1723 1722 1738
4451 17 1724 1723 1730 1743
4452 17 1722 1723 1724 1739
4453 17 1722 1723 1730 1743
4454 17 1723 1730 1728 1726
4455 17 1723 1730 1728 1729
4456 9 1730 1728 1729 1742
4457 17 1729 1728 1730 1743
4458 9 1726 1728 1729 1742
4459 17 1726 1728 1730 1743
4460 12 1253 1252 1250 1262
4461 8 1247 1252 1250 1251
4462 12 1247 1252 1250 1262
4463 17 1250 1252 1253 1260
4464 17 1247 1252 1253 1260
4465 17 1039 1055 1054 1042
4466 17 1036 1055 1054 1042
4467 17 1036 1055 1039 1037
4468 17 1036 1055 1039 1040
4469 17 1039 1055 1054 1061
4470 17 1036 1055 1054 1061
4471 17 1040 1039 1055 1054
4472 17 1037 1039 1040 1041
4473 17 1037 1039 1055 1054
4474 17 1055 1039 1040 1056
4475 17 1037 1039 1040 1056
4476 8 1149 1148 1147 1152
4477 16 1149 1148 1162 1163
4478 16 1149 1148 1162 1150
4479 16 1147 1148 1162 1163
4480 16 1147 1148 1162 1150
4481 11 1150 1162 1163 1164
4482 11 1150 1162 1163 1176
4483 11 1148 1162 1163 1164
4484 11 1148 1162 1163 1176
4485 16 1148 1162 1150 1151
4486 16 1148 1162 1150 1152
4487 17 1164 1163 1176 1175
4488 17 1162 1163 1164 1165
4489 17 1162 1163 1176 1175
4490 17 1176 1163 1164 1177
4491 17 1164 1163 1176 1184
4492 17 1162 1163 1164 1177
4493 17 1162 1163 1176 1184
4494 17 1163 1176 1175 1166
4495 17 1163 1176 1175 1183
4496 16 1037 1022 1036 1055
4497 16 1036 1022 1037 1038
4498 16 1036 1022 1037 1039
4499 16 1021 1022 1036 1035
4500 16 1021 1022 1036 1055
4501 16 1021 1022 1037 1038
4502 16 1021 1022 1037 1039
4503 8 1035 1036 1055 1054
4504 8 1035 1036 1055 1039
4505 16 1035 1036 1022 1037
4506 12 1022 1036 1055 1054
4507 12 1022 1036 1055 1039
4508 17 1019 1020 1021 1022
4509 17 1019 1020 1021 1023
4510 17 1021 1020 1019 1029
4511 11 1023 1021 1022 1036
4512 11 1023 1021 1022 1037
4513 17 1022 1021 1023 1024
4514 11 1020 1021 1022 1036
4515 11 1020 1021 1022 1037
4516 17 1020 1021 1023 1024
4517 17 1023 1021 1020 1030
4518 17 1022 1021 1020 1030
4519 17 1022 1021 1023 1031
4520 17 1020 1021 1023 1031
4521 17 1031 1023 1024 1032
4522 17 1021 1023 1024 1032
4523 17 1018 1024 1023 1021
4524 17 1018 1024 1023 1031
4525 8 1038 1037 1039 1040
4526 8 1038 1037 1039 1055
4527 12 1022 1037 1039 1040
4528 12 1022 1037 1039 1055
4529 17 1020 1019 1018 1024
4530 17 1018 1019 1020 1021
4531 17 1029 1019 1020 1030
4532 17 1018 1019 1020 1030
4533 17 907 906 905 911
4534 17 905 906 907 908
4535 17 918 906 907 919
4536 17 905 906 907 919
4537 17 906 907 908 909
4538 17 906 907 908 910
4539 17 908 907 906 918
4540 11 910 908 909 925
4541 11 910 908 909 926
4542 17 909 908 910 911
4543 11 907 908 909 925
4544 11 907 908 909 926
4545 17 907 908 910 911
4546 17 910 908 907 919
4547 17 909 908 907 919
4548 17 909 908 910 920
4549 17 907 908 910 920
4550 7 2619 2620 2621 2622
4551 7 2619 2620 2621 2628
4552 4 2621 2620 2619 2633
4553 4 2621 2620 2619 2634
4554 17 1183 1175 1176 1184
4555 17 1166 1175 1176 1184
4556 17 1165 1164 1163 1176
4557 17 1163 1164 1165 1166
4558 17 1177 1164 1165 1178
4559 17 1163 1164 1165 1178
4560 17 1019 1018 1024 1023
4561 17 1017 1018 1019 1020
4562 17 1017 1018 1024 1023
4563 17 1024 1018 1019 1029
4564 17 1019 1018 1024 1032
4565 17 1017 1018 1019 1029
4566 17 1017 1018 1024 1032
4567 17 920 910 911 921
4568 17 908 910 911 921
4569 16 926 909 925 944
4570 16 925 909 926 927
4571 16 925 909 926 928
4572 16 908 909 925 924
4573 16 908 909 925 944
4574 16 908 909 926 927
4575 16 908 909 926 928
4576 8 927 926 928 929
4577 8 927 926 928 944
4578 12 909 926 928 929
4579 12 909 926 928 944
4580 17 1244 1253 1252 1250
4581 17 1244 1253 1252 1247
4582 8 924 925 944 943
4583 8 924 925 944 928
4584 16 924 925 909 926
4585 12 909 925 944 943
4586 12 909 925 944 928
4587 17 906 905 911 910
4588 17 904 905 906 907
4589 17 904 905 911 910
4590 17 911 905 906 918
4591 17 906 905 911 921
4592 17 904 905 906 918
4593 17 904 905 911 921
4594 17 905 911 910 908
4595 17 905 911 910 920
4596 10 1018 1017 1016 1025
4597 10 1016 1017 1018 1019
4598 10 1016 1017 1018 1024
4599 17 929 928 944 943
4600 17 926 928 929 930
4601 17 926 928 944 943
4602 17 944 928 929 945
4603 17 926 928 929 945
4604 17 930 929 928 944
4605 17 928 929 930 931
4606 17 945 929 930 946
4607 17 928 929 930 946
4608 17 928 944 943 931
4609 17 925 944 943 931
4610 17 925 944 928 926
4611 17 925 944 928 929
4612 17 928 944 943 950
4613 17 925 944 943 950
4614 17 929 930 931 932
4615 17 929 930 931 943
4616 17 931 930 929 945
4617 17 932 931 943 944
4618 10 930 931 932 933
4619 17 930 931 943 944
4620 17 943 931 930 946
4621 17 932 931 930 946
4622 17 932 931 943 950
4623 17 930 931 943 950
4624 8 1138 1137 1139 1140
4625 8 1138 1137 1139 1155
4626 12 1122 1137 1139 1140
4627 12 1122 1137 1139 1155
4628 8 1135 1136 1155 1154
4629 8 1135 1136 1155 1139
4630 16 1135 1136 1122 1137
4631 12 1122 1136 1155 1154
4632 12 1122 1136 1155 1139
4633 16 1137 1122 1136 1155
4634 16 1136 1122 1137 1138
4635 16 1136 1122 1137 1139
4636 16 1121 1122 1136 1135
4637 16 1121 1122 1136 1155
4638 16 1121 1122 1137 1138
4639 16 1121 1122 1137 1139
4640 10 933 932 931 943
4641 10 931 932 933 934
4642 10 931 932 933 942
4643 17 1119 1120 1121 1122
4644 17 1119 1120 1121 1123
4645 17 1121 1120 1119 1129
4646 11 1123 1121 1122 1136
4647 11 1123 1121 1122 1137
4648 17 1122 1121 1123 1124
4649 11 1120 1121 1122 1136
4650 11 1120 1121 1122 1137
4651 17 1120 1121 1123 1124
4652 17 1123 1121 1120 1130
4653 17 1122 1121 1120 1130
4654 17 1122 1121 1123 1131
4655 17 1120 1121 1123 1131
4656 17 1120 1119 1118 1124
4657 17 1118 1119 1120 1121
4658 17 1129 1119 1120 1130
4659 17 1118 1119 1120 1130
4660 17 934 933 942 941
4661 17 932 933 934 935
4662 17 932 933 942 941
4663 17 942 933 934 947
4664 17 934 933 942 949
4665 17 932 933 934 947
4666 17 932 933 942 949
4667 17 935 934 933 942
4668 17 933 934 935 936
4669 17 947 934 935 948
4670 17 933 934 935 948
4671 17 933 942 941 939
4672 17 933 942 941 936
4673 17 1987 2003 2002 1990
4674 17 1984 2003 2002 1990
4675 17 1984 2003 1987 1985
4676 17 1984 2003 1987 1988
4677 17 1987 2003 2002 2009
4678 17 1984 2003 2002 2009
4679 17 367 366 365 384
4680 17 365 366 367 368
4681 17 365 366 367 369
4682 17 1967 1966 1972 1971
4683 17 1965 1966 1967 1968
4684 17 1965 1966 1972 1971
4685 17 1972 1966 1967 1977
4686 17 1967 1966 1972 1980
4687 17 1965 1966 1967 1977
4688 17 1965 1966 1972 1980
4689 17 1968 1967 1966 1972
4690 17 1966 1967 1968 1969
4691 17 1977 1967 1968 1978
4692 17 1966 1967 1968 1978
4693 17 1988 1987 2003 2002
4694 17 1985 1987 1988 1989
4695 17 1985 1987 2003 2002
4696 17 2003 1987 1988 2004
4697 17 1985 1987 1988 2004
4698 8 1983 1984 2003 2002
4699 8 1983 1984 2003 1987
4700 16 1983 1984 1970 1985
4701 12 1970 1984 2003 2002
4702 12 1970 1984 2003 1987
4703 17 1979 1971 1972 1980
4704 17 1969 1971 1972 1980
4705 17 1966 1972 1971 1969
4706 17 1966 1972 1971 1979
4707 17 1967 1968 1969 1970
4708 17 1967 1968 1969 1971
4709 17 1969 1968 1967 1977
4710 11 1971 1969 1970 1984
4711 11 1971 1969 1970 1985
4712 17 1970 1969 1971 1972
4713 11 1968 1969 1970 1984
4714 11 1968 1969 1970 1985
4715 17 1968 1969 1971 1972
4716 17 1971 1969 1968 1978
4717 17 1970 1969 1968 1978
4718 17 1970 1969 1971 1979
4719 17 1968 1969 1971 1979
4720 16 1985 1970 1984 2003
4721 16 1984 1970 1985 1986
4722 16 1984 1970 1985 1987
4723 16 1969 1970 1984 1983
4724 16 1969 1970 1984 2003
4725 16 1969 1970 1985 1986
4726 16 1969 1970 1985 1987
4727 8 1986 1985 1987 1988
4728 8 1986 1985 1987 2003
4729 12 1970 1985 1987 1988
4730 12 1970 1985 1987 2003
4731 8 401 400 402 403
4732 8 401 400 402 418
4733 12 368 400 402 403
4734 12 368 400 402 418
4735 11 369 367 368 399
4736 11 369 367 368 400
4737 17 368 367 369 370
4738 11 366 367 368 399
4739 11 366 367 368 400
4740 17 366 367 369 370
4741 17 369 367 366 385
4742 17 368 367 366 385
4743 17 368 367 369 386
4744 17 366 367 369 386
4745 17 404 403 402 418
4746 17 402 403 404 405
4747 17 419 403 404 420
4748 17 402 403 404 420
4749 16 400 368 399 418
4750 16 399 368 400 401
4751 16 399 368 400 402
4752 16 367 368 399 398
4753 16 367 368 399 418
4754 16 367 368 400 401
4755 16 367 368 400 402
4756 17 403 402 418 417
4757 17 400 402 403 404
4758 17 400 402 418 417
4759 17 418 402 403 419
4760 17 400 402 403 419
4761 17 403 404 405 406
4762 17 403 404 405 417
4763 17 405 404 403 419
4764 17 402 418 417 405
4765 17 399 418 417 405
4766 17 399 418 402 400
4767 17 399 418 402 403
4768 17 402 418 417 424
4769 17 399 418 417 424
4770 17 1274 1281 1279 1277
4771 17 1274 1281 1279 1280
4772 6 2618 2619 2620 2621
4773 4 2634 2619 2620 2635
4774 4 2634 2619 2620 2636
4775 4 2633 2619 2620 2635
4776 4 2633 2619 2620 2636
4777 1 2620 2619 2618 2632
4778 4 2618 2619 2620 2635
4779 4 2618 2619 2620 2636
4780 17 1167 1166 1175 1176
4781 10 1165 1166 1167 1168
4782 17 1165 1166 1175 1176
4783 17 1175 1166 1165 1178
4784 17 1167 1166 1165 1178
4785 17 1167 1166 1175 1183
4786 17 1165 1166 1175 1183
4787 8 369 370 371 372
4788 12 369 370 371 373
4789 17 384 370 369 386
4790 17 371 370 369 386
4791 17 371 370 384 397
4792 17 369 370 384 397
4793 17 1276 1275 1274 1281
4794 17 1274 1275 1276 1277
4795 17 1290 1275 1276 1291
4796 17 1274 1275 1276 1291
4797 13 1718 1720 1721 1722
4798 5 1718 1720 1721 1722
4799 3 1718 1720 1721 1722
4800 1 1734 1720 1721 1735
4801 1 1734 1720 1721 1736
4802 2 1718 1720 1721 1735
4803 2 1718 1720 1721 1736
4804 12 373 371 370 384
4805 8 372 371 370 384
4806 16 372 371 373 374
4807 16 370 371 373 374
4808 15 372 371 373 387
4809 16 372 371 373 387
4810 16 370 371 373 387
4811 7 1272 1273 1274 1275
4812 7 1272 1273 1274 1281
4813 4 1274 1273 1272 1286
4814 4 1274 1273 1272 1287
4815 17 1725 1724 1723 1730
4816 17 1723 1724 1725 1726
4817 17 1739 1724 1725 1740
4818 17 1723 1724 1725 1740
4819 17 1724 1725 1726 1727
4820 17 1724 1725 1726 1728
4821 17 1726 1725 1724 1739
4822 17 1727 1726 1728 1729
4823 17 1727 1726 1728 1730
4824 17 1725 1726 1728 1729
4825 17 1725 1726 1728 1730
4826 17 1728 1726 1725 1740
4827 9 1728 1726 1727 1741
4828 17 1727 1726 1725 1740
4829 9 1725 1726 1727 1741
4830 17 367 369 370 371
4831 17 367 369 370 384
4832 17 1275 1274 1281 1279
4833 17 1273 1274 1275 1276
4834 17 1273 1274 1281 1279
4835 2 1281 1274 1273 1288
4836 2 1281 1274 1273 1289
4837 17 1281 1274 1275 1290
4838 2 1275 1274 1273 1288
4839 2 1275 1274 1273 1289
4840 17 1275 1274 1281 1294
4841 17 1273 1274 1275 1290
4842 17 1273 1274 1281 1294
4843 17 1164 1165 1166 1167
4844 17 1164 1165 1166 1175
4845 17 1166 1165 1164 1177
4846 6 373 374 375 376
4847 4 389 374 375 390
4848 4 389 374 375 391
4849 4 388 374 375 390
4850 4 388 374 375 391
4851 1 375 374 373 387
4852 4 373 374 375 390
4853 4 373 374 375 391
4854 10 1168 1167 1166 1175
4855 10 1166 1167 1168 1169
4856 10 1166 1167 1168 1174
4857 17 1170 1169 1168 1174
4858 17 1168 1169 1170 1171
4859 17 1179 1169 1170 1180
4860 17 1168 1169 1170 1180
4861 17 1169 1168 1174 1173
4862 17 1167 1168 1169 1170
4863 17 1167 1168 1174 1173
4864 17 1174 1168 1169 1179
4865 17 1169 1168 1174 1182
4866 17 1167 1168 1169 1179
4867 17 1167 1168 1174 1182
4868 17 1168 1174 1173 1171
4869 17 1168 1174 1173 1181
4870 17 1169 1170 1171 1172
4871 17 1169 1170 1171 1173
4872 17 1171 1170 1169 1179
4873 17 1181 1173 1174 1182
4874 17 1171 1173 1174 1182
4875 13 371 373 374 375
4876 5 371 373 374 375
4877 3 371 373 374 375
4878 1 387 373 374 388
4879 1 387 373 374 389
4880 2 371 373 374 388
4881 2 371 373 374 389
4882 7 374 375 376 377
4883 7 374 375 376 383
4884 4 376 375 374 388
4885 4 376 375 374 389
4886 11 1173 1171 1172 1186
4887 11 1173 1171 1172 1187
4888 17 1172 1171 1173 1174
4889 11 1170 1171 1172 1186
4890 11 1170 1171 1172 1187
4891 17 1170 1171 1173 1174
4892 17 1173 1171 1170 1180
4893 17 1172 1171 1170 1180
4894 17 1172 1171 1173 1181
4895 17 1170 1171 1173 1181
4896 17 376 383 381 379
4897 17 376 383 381 382
4898 17 377 376 383 381
4899 17 375 376 377 378
4900 17 375 376 383 381
4901 2 383 376 375 390
4902 2 383 376 375 391
4903 17 383 376 377 392
4904 2 377 376 375 390
4905 2 377 376 375 391
4906 17 377 376 383 396
4907 17 375 376 377 392
4908 17 375 376 383 396
4909 9 383 381 382 395
4910 17 382 381 383 396
4911 9 379 381 382 395
4912 17 379 381 383 396
4913 12 1720 1718 1717 1731
4914 8 1719 1718 1717 1731
4915 16 1719 1718 1720 1721
4916 16 1717 1718 1720 1721
4917 15 1719 1718 1720 1734
4918 16 1719 1718 1720 1734
4919 16 1717 1718 1720 1734
4920 13 2616 2618 2619 2620
4921 5 2616 2618 2619 2620
4922 3 2616 2618 2619 2620
4923 1 2632 2618 2619 2633
4924 1 2632 2618 2619 2634
4925 2 2616 2618 2619 2633
4926 2 2616 2618 2619 2634
4927 10 905 904 903 912
4928 10 903 904 905 906
4929 10 903 904 905 911
4930 17 901 902 903 904
4931 17 901 902 903 912
4932 17 903 902 901 916
4933 17 2622 2623 2624 2625
4934 17 2622 2623 2624 2626
4935 17 2624 2623 2622 2637
4936 12 2618 2616 2615 2629
4937 8 2617 2616 2615 2629
4938 16 2617 2616 2618 2619
4939 16 2615 2616 2618 2619
4940 15 2617 2616 2618 2632
4941 16 2617 2616 2618 2632
4942 16 2615 2616 2618 2632
4943 17 904 903 912 913
4944 10 902 903 904 905
4945 17 902 903 912 913
4946 17 912 903 902 917
4947 17 904 903 902 917
4948 17 904 903 912 922
4949 17 902 903 912 922
4950 17 2612 2614 2615 2616
4951 17 2612 2614 2615 2629
4952 11 2614 2612 2613 2644
4953 11 2614 2612 2613 2645
4954 17 2613 2612 2614 2615
4955 11 2611 2612 2613 2644
4956 11 2611 2612 2613 2645
4957 17 2611 2612 2614 2615
4958 17 2614 2612 2611 2630
4959 17 2613 2612 2611 2630
4960 17 2613 2612 2614 2631
4961 17 2611 2612 2614 2631
4962 8 2614 2615 2616 2617
4963 12 2614 2615 2616 2618
4964 17 2629 2615 2614 2631
4965 17 2616 2615 2614 2631
4966 17 2616 2615 2629 2642
4967 17 2614 2615 2629 2642
4968 17 2612 2611 2610 2629
4969 17 2610 2611 2612 2613
4970 17 2610 2611 2612 2614
4971 16 2645 2613 2644 2663
4972 16 2644 2613 2645 2646
4973 16 2644 2613 2645 2647
4974 16 2612 2613 2644 2643
4975 16 2612 2613 2644 2663
4976 16 2612 2613 2645 2646
4977 16 2612 2613 2645 2647
4978 8 2643 2644 2663 2662
4979 8 2643 2644 2663 2647
4980 16 2643 2644 2613 2645
4981 12 2613 2644 2663 2662
4982 12 2613 2644 2663 2647
4983 17 2392 2393 2394 2395
4984 17 2392 2393 2394 2399
4985 17 2394 2393 2392 2405
4986 17 2393 2392 2391 2400
4987 17 2391 2392 2393 2394
4988 17 2405 2392 2393 2406
4989 17 2391 2392 2393 2406
4990 8 2396 2395 2394 2399
4991 16 2396 2395 2409 2410
4992 16 2396 2395 2409 2397
4993 16 2394 2395 2409 2410
4994 16 2394 2395 2409 2397
4995 12 2399 2394 2395 2409
4996 17 2395 2394 2399 2397
4997 17 2395 2394 2399 2400
4998 8 2393 2394 2395 2396
4999 12 2393 2394 2395 2409
5000 17 2393 2394 2399 2397
5001 17 2393 2394 2399 2400
5002 17 2399 2394 2393 2406
5003 17 2395 2394 2393 2406
5004 17 2647 2663 2662 2650
5005 17 2644 2663 2662 2650
5006 17 2644 2663 2647 2645
5007 17 2644 2663 2647 2648
5008 17 2647 2663 2662 2669
5009 17 2644 2663 2662 2669
5010 8 2646 2645 2647 2648
5011 8 2646 2645 2647 2663
5012 12 2613 2645 2647 2648
5013 12 2613 2645 2647 2663
5014 17 2648 2647 2663 2662
5015 17 2645 2647 2648 2649
5016 17 2645 2647 2663 2662
5017 17 2663 2647 2648 2664
5018 17 2645 2647 2648 2664
5019 17 2651 2650 2662 2663
5020 10 2649 2650 2651 2652
5021 17 2649 2650 2662 2663
5022 17 2662 2650 2649 2665
5023 17 2651 2650 2649 2665
5024 17 2651 2650 2662 2669
5025 17 2649 2650 2662 2669
5026 17 2610 2629 2615 2614
5027 17 2610 2629 2615 2616
5028 17 2392 2391 2400 2399
5029 17 2390 2391 2392 2393
5030 17 2390 2391 2400 2399
5031 17 2400 2391 2392 2405
5032 17 2392 2391 2400 2407
5033 17 2390 2391 2392 2405
5034 17 2390 2391 2400 2407
5035 17 2622 2621 2628 2626
5036 17 2620 2621 2622 2623
5037 17 2620 2621 2628 2626
5038 2 2628 2621 2620 2635
5039 2 2628 2621 2620 2636
5040 17 2628 2621 2622 2637
5041 2 2622 2621 2620 2635
5042 2 2622 2621 2620 2636
5043 17 2622 2621 2628 2641
5044 17 2620 2621 2622 2637
5045 17 2620 2621 2628 2641
5046 17 2623 2622 2621 2628
5047 17 2621 2622 2623 2624
5048 17 2637 2622 2623 2638
5049 17 2621 2622 2623 2638
5050 17 742 741 740 756
5051 17 740 741 742 743
5052 17 757 741 742 758
5053 17 740 741 742 758
5054 17 2611 2610 2629 2615
5055 17 2609 2610 2611 2612
5056 17 2609 2610 2629 2615
5057 17 2629 2610 2611 2630
5058 17 2611 2610 2629 2642
5059 17 2609 2610 2611 2630
5060 17 2609 2610 2629 2642
5061 17 2649 2648 2647 2663
5062 17 2647 2648 2649 2650
5063 17 2664 2648 2649 2665
5064 17 2647 2648 2649 2665
5065 17 2648 2649 2650 2651
5066 17 2648 2649 2650 2662
5067 17 2650 2649 2648 2664
5068 10 2652 2651 2650 2662
5069 10 2650 2651 2652 2653
5070 10 2650 2651 2652 2661
5071 17 741 740 756 755
5072 17 738 740 741 742
5073 17 738 740 756 755
5074 17 756 740 741 757
5075 17 738 740 741 757
5076 17 669 675 674 672
5077 17 669 675 674 682
5078 17 457 456 462 461
5079 17 455 456 457 458
5080 17 455 456 462 461
5081 17 462 456 457 469
5082 17 457 456 462 472
5083 17 455 456 457 469
5084 17 455 456 462 472
5085 17 1119 1118 1124 1123
5086 17 1117 1118 1119 1120
5087 17 1117 1118 1124 1123
5088 17 1124 1118 1119 1129
5089 17 1119 1118 1124 1132
5090 17 1117 1118 1119 1129
5091 17 1117 1118 1124 1132
5092 10 1118 1117 1116 1125
5093 10 1116 1117 1118 1119
5094 10 1116 1117 1118 1124
5095 10 669 668 667 676
5096 10 667 668 669 670
5097 10 667 668 669 675
5098 17 670 669 675 674
5099 17 668 669 670 671
5100 17 668 669 675 674
5101 17 675 669 670 680
5102 17 670 669 675 683
5103 17 668 669 670 680
5104 17 668 669 675 683
5105 17 682 674 675 683
5106 17 672 674 675 683
5107 17 671 670 669 675
5108 17 669 670 671 672
5109 17 680 670 671 681
5110 17 669 670 671 681
5111 11 674 672 673 687
5112 11 674 672 673 688
5113 17 673 672 674 675
5114 11 671 672 673 687
5115 11 671 672 673 688
5116 17 671 672 674 675
5117 17 674 672 671 681
5118 17 673 672 671 681
5119 17 673 672 674 682
5120 17 671 672 674 682
5121 17 670 671 672 673
5122 17 670 671 672 674
5123 17 672 671 670 680
5124 10 456 455 454 463
5125 10 454 455 456 457
5126 10 454 455 456 462
5127 17 455 454 463 464
5128 10 453 454 455 456
5129 17 453 454 463 464
5130 17 463 454 453 468
5131 17 455 454 453 468
5132 17 455 454 463 473
5133 17 453 454 463 473
5134 17 452 453 454 455
5135 17 452 453 454 463
5136 17 454 453 452 467
5137 16 688 673 687 706
5138 16 687 673 688 689
5139 16 687 673 688 690
5140 16 672 673 687 686
5141 16 672 673 687 706
5142 16 672 673 688 689
5143 16 672 673 688 690
5144 8 686 687 706 705
5145 8 686 687 706 690
5146 16 686 687 673 688
5147 12 673 687 706 705
5148 12 673 687 706 690
5149 17 1131 1123 1124 1132
5150 17 1121 1123 1124 1132
5151 17 1118 1124 1123 1121
5152 17 1118 1124 1123 1131
5153 17 453 452 451 464
5154 17 451 452 453 454
5155 17 467 452 453 468
5156 17 451 452 453 468
5157 17 452 451 464 463
5158 17 450 451 452 453
5159 17 450 451 464 463
5160 14 464 451 450 465
5161 14 464 451 450 466
5162 17 464 451 452 467
5163 14 452 451 450 465
5164 14 452 451 450 466
5165 17 452 451 464 474
5166 17 450 451 452 467
5167 17 450 451 464 474
5168 17 1117 1116 1125 1126
5169 10 1115 1116 1117 1118
5170 17 1115 1116 1125 1126
5171 17 1125 1116 1115 1128
5172 17 1117 1116 1115 1128
5173 17 1117 1116 1125 1133
5174 17 1115 1116 1125 1133
5175 17 1114 1115 1116 1117
5176 17 1114 1115 1116 1125
5177 17 1116 1115 1114 1127
5178 17 473 463 464 474
5179 17 454 463 464 474
5180 17 451 464 463 454
5181 17 451 464 463 473
5182 8 689 688 690 691
5183 8 689 688 690 706
5184 12 673 688 690 691
5185 12 673 688 690 706
5186 17 691 690 706 705
5187 17 688 690 691 692
5188 17 688 690 706 705
5189 17 706 690 691 707
5190 17 688 690 691 707
5191 17 690 706 705 693
5192 17 687 706 705 693
5193 17 687 706 690 688
5194 17 687 706 690 691
5195 17 690 706 705 712
5196 17 687 706 705 712
5197 17 1115 1114 1113 1126
5198 17 1113 1114 1115 1116
5199 17 1127 1114 1115 1128
5200 17 1113 1114 1115 1128
5201 17 692 691 690 706
5202 17 690 691 692 693
5203 17 707 691 692 708
5204 17 690 691 692 708
5205 17 1133 1125 1126 1134
5206 17 1116 1125 1126 1134
5207 17 1114 1113 1126 1125
5208 17 1112 1113 1114 1115
5209 17 1112 1113 1126 1125
5210 17 1126 1113 1114 1127
5211 17 1114 1113 1126 1134
5212 17 1112 1113 1114 1127
5213 17 1112 1113 1126 1134
5214 8 398 399 418 417
5215 8 398 399 418 402
5216 16 398 399 368 400
5217 12 368 399 418 417
5218 12 368 399 418 402
5219 17 145 144 156 157
5220 10 143 144 145 146
5221 17 143 144 156 157
5222 17 156 144 143 159
5223 17 145 144 143 159
5224 17 145 144 156 163
5225 17 143 144 156 163
5226 17 147 146 155 154
5227 17 145 146 147 148
5228 17 145 146 155 154
5229 17 155 146 147 160
5230 17 147 146 155 162
5231 17 145 146 147 160
5232 17 145 146 155 162
5233 17 428 427 426 439
5234 17 426 427 428 429
5235 17 440 427 428 441
5236 17 426 427 428 441
5237 17 147 148 149 150
5238 17 147 148 149 154
5239 17 149 148 147 160
5240 17 407 416 415 413
5241 17 407 416 415 410
5242 16 415 413 425 426
5243 8 414 413 415 416
5244 16 414 413 425 426
5245 12 416 415 413 425
5246 8 410 415 413 414
5247 12 410 415 413 425
5248 17 413 415 416 423
5249 17 410 415 416 423
5250 10 146 145 144 156
5251 10 144 145 146 147
5252 10 144 145 146 155
5253 17 148 147 146 155
5254 17 146 147 148 149
5255 17 160 147 148 161
5256 17 146 147 148 161
5257 17 408 407 416 415
5258 17 406 407 408 409
5259 17 406 407 416 415
5260 17 416 407 408 421
5261 17 408 407 416 423
5262 17 406 407 408 421
5263 17 406 407 416 423
5264 17 409 408 407 416
5265 17 407 408 409 410
5266 17 421 408 409 422
5267 17 407 408 409 422
5268 17 406 405 417 418
5269 10 404 405 406 407
5270 17 404 405 417 418
5271 17 417 405 404 420
5272 17 406 405 404 420
5273 17 406 405 417 424
5274 17 404 405 417 424
5275 10 407 406 405 417
5276 10 405 406 407 408
5277 10 405 406 407 416
5278 12 415 410 411 425
5279 17 411 410 415 413
5280 17 411 410 415 416
5281 8 409 410 411 412
5282 12 409 410 411 425
5283 17 409 410 415 413
5284 17 409 410 415 416
5285 17 415 410 409 422
5286 17 411 410 409 422
5287 17 408 409 410 411
5288 17 408 409 410 415
5289 17 410 409 408 421
5290 11 413 425 426 427
5291 11 413 425 426 439
5292 11 411 425 426 427
5293 11 411 425 426 439
5294 16 411 425 413 414
5295 16 411 425 413 415
5296 8 412 411 410 415
5297 16 412 411 425 426
5298 16 412 411 425 413
5299 16 410 411 425 426
5300 16 410 411 425 413
5301 17 69 68 70 71
5302 17 69 68 70 72
5303 17 67 68 70 71
5304 17 67 68 70 72
5305 17 70 68 67 82
5306 9 70 68 69 83
5307 17 69 68 67 82
5308 9 67 68 69 83
5309 17 427 426 439 438
5310 17 425 426 427 428
5311 17 425 426 439 438
5312 17 439 426 427 440
5313 17 427 426 439 449
5314 17 425 426 427 440
5315 17 425 426 439 449
5316 17 378 377 376 383
5317 17 376 377 378 379
5318 17 392 377 378 393
5319 17 376 377 378 393
5320 17 380 379 381 382
5321 17 380 379 381 383
5322 17 378 379 381 382
5323 17 378 379 381 383
5324 17 381 379 378 393
5325 9 381 379 380 394
5326 17 380 379 378 393
5327 9 378 379 380 394
5328 10 2391 2390 2389 2401
5329 10 2389 2390 2391 2392
5330 10 2389 2390 2391 2400
5331 8 750 749 748 753
5332 16 750 749 763 764
5333 16 750 749 763 751
5334 16 748 749 763 764
5335 16 748 749 763 751
5336 17 746 747 748 749
5337 17 746 747 748 753
5338 17 748 747 746 759
5339 12 754 753 751 763
5340 8 748 753 751 752
5341 12 748 753 751 763
5342 17 751 753 754 761
5343 17 748 753 754 761
5344 12 753 748 749 763
5345 17 749 748 753 751
5346 17 749 748 753 754
5347 8 747 748 749 750
5348 12 747 748 749 763
5349 17 747 748 753 751
5350 17 747 748 753 754
5351 17 753 748 747 760
5352 17 749 748 747 760
5353 17 747 746 745 754
5354 17 745 746 747 748
5355 17 759 746 747 760
5356 17 745 746 747 760
5357 17 745 754 753 751
5358 17 745 754 753 748
5359 17 746 745 754 753
5360 17 744 745 746 747
5361 17 744 745 754 753
5362 17 754 745 746 759
5363 17 746 745 754 761
5364 17 744 745 746 759
5365 17 744 745 754 761
5366 17 2492 2493 2494 2495
5367 17 2492 2493 2494 2499
5368 17 2494 2493 2492 2505
5369 10 745 744 743 755
5370 10 743 744 745 746
5371 10 743 744 745 754
5372 17 2493 2492 2491 2500
5373 17 2491 2492 2493 2494
5374 17 2505 2492 2493 2506
5375 17 2491 2492 2493 2506
5376 17 741 742 743 744
5377 17 741 742 743 755
5378 17 743 742 741 757
5379 10 2491 2490 2489 2501
5380 10 2489 2490 2491 2492
5381 10 2489 2490 2491 2500
5382 17 377 378 379 380
5383 17 377 378 379 381
5384 17 379 378 377 392
5385 17 2490 2489 2501 2502
5386 10 2488 2489 2490 2491
5387 17 2488 2489 2501 2502
5388 17 2501 2489 2488 2504
5389 17 2490 2489 2488 2504
5390 17 2490 2489 2501 2508
5391 17 2488 2489 2501 2508
5392 17 2492 2491 2500 2499
5393 17 2490 2491 2492 2493
5394 17 2490 2491 2500 2499
5395 17 2500 2491 2492 2505
5396 17 2492 2491 2500 2507
5397 17 2490 2491 2492 2505
5398 17 2490 2491 2500 2507
5399 17 744 743 755 756
5400 10 742 743 744 745
5401 17 742 743 755 756
5402 17 755 743 742 758
5403 17 744 743 742 758
5404 17 744 743 755 762
5405 17 742 743 755 762
5406 17 2491 2500 2499 2497
5407 17 2491 2500 2499 2494
5408 12 2499 2494 2495 2509
5409 17 2495 2494 2499 2497
5410 17 2495 2494 2499 2500
5411 8 2493 2494 2495 2496
5412 12 2493 2494 2495 2509
5413 17 2493 2494 2499 2497
5414 17 2493 2494 2499 2500
5415 17 2499 2494 2493 2506
5416 17 2495 2494 2493 2506
5417 12 2500 2499 2497 2509
5418 8 2494 2499 2497 2498
5419 12 2494 2499 2497 2509
5420 17 2497 2499 2500 2507
5421 17 2494 2499 2500 2507
5422 17 2093 2092 2101 2100
5423 17 2091 2092 2093 2094
5424 17 2091 2092 2101 2100
5425 17 2101 2092 2093 2106
5426 17 2093 2092 2101 2108
5427 17 2091 2092 2093 2106
5428 17 2091 2092 2101 2108
5429 10 719 718 717 726
5430 10 717 718 719 720
5431 10 717 718 719 725
5432 10 1617 1616 1615 1624
5433 10 1615 1616 1617 1618
5434 10 1615 1616 1617 1623
5435 17 1302 1301 1300 1316
5436 17 1300 1301 1302 1303
5437 17 1317 1301 1302 1318
5438 17 1300 1301 1302 1318
5439 17 1301 1302 1303 1304
5440 17 1301 1302 1303 1315
5441 17 1303 1302 1301 1317
5442 17 718 717 726 727
5443 10 716 717 718 719
5444 17 716 717 726 727
5445 17 726 717 716 729
5446 17 718 717 716 729
5447 17 718 717 726 734
5448 17 716 717 726 734
5449 17 1614 1613 1612 1625
5450 17 1612 1613 1614 1615
5451 17 1626 1613 1614 1627
5452 17 1612 1613 1614 1627
5453 17 1613 1614 1615 1616
5454 17 1613 1614 1615 1624
5455 17 1615 1614 1613 1626
5456 17 732 724 725 733
5457 17 722 724 725 733
5458 17 720 719 725 724
5459 17 718 719 720 721
5460 17 718 719 725 724
5461 17 725 719 720 730
5462 17 720 719 725 733
5463 17 718 719 720 730
5464 17 718 719 725 733
5465 11 724 722 723 737
5466 11 724 722 723 738
5467 17 723 722 724 725
5468 11 721 722 723 737
5469 11 721 722 723 738
5470 17 721 722 724 725
5471 17 724 722 721 731
5472 17 723 722 721 731
5473 17 723 722 724 732
5474 17 721 722 724 732
5475 17 721 720 719 725
5476 17 719 720 721 722
5477 17 730 720 721 731
5478 17 719 720 721 731
5479 17 720 721 722 723
5480 17 720 721 722 724
5481 17 722 721 720 730
5482 16 738 723 737 756
5483 16 737 723 738 739
5484 16 737 723 738 740
5485 16 722 723 737 736
5486 16 722 723 737 756
5487 16 722 723 738 739
5488 16 722 723 738 740
5489 8 736 737 756 755
5490 8 736 737 756 740
5491 16 736 737 723 738
5492 12 723 737 756 755
5493 12 723 737 756 740
5494 8 739 738 740 741
5495 8 739 738 740 756
5496 12 723 738 740 741
5497 12 723 738 740 756
5498 17 2653 2652 2661 2660
5499 17 2651 2652 2653 2654
5500 17 2651 2652 2661 2660
5501 17 2661 2652 2653 2666
5502 17 2653 2652 2661 2668
5503 17 2651 2652 2653 2666
5504 17 2651 2652 2661 2668
5505 17 2652 2661 2660 2658
5506 17 2652 2661 2660 2655
5507 16 2660 2658 2670 2671
5508 8 2659 2658 2660 2661
5509 16 2659 2658 2670 2671
5510 12 2661 2660 2658 2670
5511 8 2655 2660 2658 2659
5512 12 2655 2660 2658 2670
5513 17 2658 2660 2661 2668
5514 17 2655 2660 2661 2668
5515 11 2658 2670 2671 2672
5516 11 2658 2670 2671 2684
5517 11 2656 2670 2671 2672
5518 11 2656 2670 2671 2684
5519 16 2656 2670 2658 2659
5520 16 2656 2670 2658 2660
5521 17 734 726 727 735
5522 17 717 726 727 735
5523 12 2660 2655 2656 2670
5524 17 2656 2655 2660 2658
5525 17 2656 2655 2660 2661
5526 8 2654 2655 2656 2657
5527 12 2654 2655 2656 2670
5528 17 2654 2655 2660 2658
5529 17 2654 2655 2660 2661
5530 17 2660 2655 2654 2667
5531 17 2656 2655 2654 2667
5532 8 2657 2656 2655 2660
5533 16 2657 2656 2670 2671
5534 16 2657 2656 2670 2658
5535 16 2655 2656 2670 2671
5536 16 2655 2656 2670 2658
5537 17 1617 1623 1622 1620
5538 17 1617 1623 1622 1630
5539 17 2094 2093 2092 2101
5540 17 2092 2093 2094 2095
5541 17 2106 2093 2094 2107
5542 17 2092 2093 2094 2107
5543 17 2654 2653 2652 2661
5544 17 2652 2653 2654 2655
5545 17 2666 2653 2654 2667
5546 17 2652 2653 2654 2667
5547 17 740 756 755 743
5548 17 737 756 755 743
5549 17 737 756 740 738
5550 17 737 756 740 741
5551 17 740 756 755 762
5552 17 737 756 755 762
5553 17 715 716 717 718
5554 17 715 716 717 726
5555 17 717 716 715 728
5556 8 700 699 698 703
5557 16 700 699 713 714
5558 16 700 699 713 701
5559 16 698 699 713 714
5560 16 698 699 713 701
5561 17 716 715 714 727
5562 17 714 715 716 717
5563 17 728 715 716 729
5564 17 714 715 716 729
5565 17 715 714 727 726
5566 17 713 714 715 716
5567 17 713 714 727 726
5568 17 727 714 715 728
5569 17 715 714 727 735
5570 17 713 714 715 728
5571 17 713 714 727 735
5572 17 1306 1305 1314 1313
5573 17 1304 1305 1306 1307
5574 17 1304 1305 1314 1313
5575 17 1314 1305 1306 1319
5576 17 1306 1305 1314 1321
5577 17 1304 1305 1306 1319
5578 17 1304 1305 1314 1321
5579 12 1313 1308 1309 1323
5580 17 1309 1308 1313 1311
5581 17 1309 1308 1313 1314
5582 8 1307 1308 1309 1310
5583 12 1307 1308 1309 1323
5584 17 1307 1308 1313 1311
5585 17 1307 1308 1313 1314
5586 17 1313 1308 1307 1320
5587 17 1309 1308 1307 1320
5588 10 1305 1304 1303 1315
5589 10 1303 1304 1305 1306
5590 10 1303 1304 1305 1314
5591 17 1865 1864 1866 1867
5592 17 1865 1864 1866 1868
5593 17 1863 1864 1866 1867
5594 17 1863 1864 1866 1868
5595 17 1866 1864 1863 1878
5596 9 1866 1864 1865 1879
5597 17 1865 1864 1863 1878
5598 9 1863 1864 1865 1879
5599 17 696 697 698 699
5600 17 696 697 698 703
5601 17 698 697 696 709
5602 17 2653 2654 2655 2656
5603 17 2653 2654 2655 2660
5604 17 2655 2654 2653 2666
5605 12 703 698 699 713
5606 17 699 698 703 701
5607 17 699 698 703 704
5608 8 697 698 699 700
5609 12 697 698 699 713
5610 17 697 698 703 701
5611 17 697 698 703 704
5612 17 703 698 697 710
5613 17 699 698 697 710
5614 17 1307 1306 1305 1314
5615 17 1305 1306 1307 1308
5616 17 1319 1306 1307 1320
5617 17 1305 1306 1307 1320
5618 9 1868 1866 1867 1880
5619 17 1867 1866 1868 1881
5620 9 1864 1866 1867 1880
5621 17 1864 1866 1868 1881
5622 17 695 704 703 701
5623 17 695 704 703 698
5624 17 714 727 726 717
5625 17 714 727 726 734
5626 11 701 713 714 715
5627 11 701 713 714 727
5628 11 699 713 714 715
5629 11 699 713 714 727
5630 16 699 713 701 702
5631 16 699 713 701 703
5632 16 703 701 713 714
5633 8 702 701 703 704
5634 16 702 701 713 714
5635 17 1861 1868 1866 1864
5636 17 1861 1868 1866 1867
5637 12 704 703 701 713
5638 8 698 703 701 702
5639 12 698 703 701 713
5640 17 701 703 704 711
5641 17 698 703 704 711
5642 17 696 695 704 703
5643 17 694 695 696 697
5644 17 694 695 704 703
5645 17 704 695 696 709
5646 17 696 695 704 711
5647 17 694 695 696 709
5648 17 694 695 704 711
5649 17 1306 1307 1308 1309
5650 17 1306 1307 1308 1313
5651 17 1308 1307 1306 1319
5652 17 697 696 695 704
5653 17 695 696 697 698
5654 17 709 696 697 710
5655 17 695 696 697 710
5656 17 1862 1861 1868 1866
5657 17 1860 1861 1862 1863
5658 17 1860 1861 1868 1866
5659 2 1868 1861 1860 1875
5660 2 1868 1861 1860 1876
5661 17 1868 1861 1862 1877
5662 2 1862 1861 1860 1875
5663 2 1862 1861 1860 1876
5664 17 1862 1861 1868 1881
5665 17 1860 1861 1862 1877
5666 17 1860 1861 1868 1881
5667 10 431 430 429 438
5668 10 429 430 431 432
5669 10 429 430 431 437
5670 16 1885 1853 1884 1903
5671 16 1884 1853 1885 1886
5672 16 1884 1853 1885 1887
5673 16 1852 1853 1884 1883
5674 16 1852 1853 1884 1903
5675 16 1852 1853 1885 1886
5676 16 1852 1853 1885 1887
5677 17 427 428 429 430
5678 17 427 428 429 438
5679 17 429 428 427 440
5680 17 142 143 144 145
5681 17 142 143 144 156
5682 17 144 143 142 158
5683 17 1862 1863 1864 1865
5684 17 1862 1863 1864 1866
5685 17 1864 1863 1862 1877
5686 17 694 693 705 706
5687 10 692 693 694 695
5688 17 692 693 705 706
5689 17 705 693 692 708
5690 17 694 693 692 708
5691 17 694 693 705 712
5692 17 692 693 705 712
5693 10 695 694 693 705
5694 10 693 694 695 696
5695 10 693 694 695 704
5696 7 1859 1860 1861 1862
5697 7 1859 1860 1861 1868
5698 4 1861 1860 1859 1873
5699 4 1861 1860 1859 1874
5700 6 1858 1859 1860 1861
5701 4 1874 1859 1860 1875
5702 4 1874 1859 1860 1876
5703 4 1873 1859 1860 1875
5704 4 1873 1859 1860 1876
5705 1 1860 1859 1858 1872
5706 4 1858 1859 1860 1875
5707 4 1858 1859 1860 1876
5708 17 430 429 438 439
5709 10 428 429 430 431
5710 17 428 429 438 439
5711 17 438 429 428 441
5712 17 430 429 428 441
5713 17 430 429 438 448
5714 17 428 429 438 448
5715 17 143 142 141 157
5716 17 141 142 143 144
5717 17 158 142 143 159
5718 17 141 142 143 159
5719 8 237 238 257 256
5720 8 237 238 257 241
5721 16 237 238 224 239
5722 12 224 238 257 256
5723 12 224 238 257 241
5724 17 448 438 439 449
5725 17 429 438 439 449
5726 17 1852 1854 1855 1856
5727 17 1852 1854 1855 1869
5728 17 426 439 438 429
5729 17 426 439 438 448
5730 13 1856 1858 1859 1860
5731 5 1856 1858 1859 1860
5732 3 1856 1858 1859 1860
5733 1 1872 1858 1859 1873
5734 1 1872 1858 1859 1874
5735 2 1856 1858 1859 1873
5736 2 1856 1858 1859 1874
5737 17 1863 1862 1861 1868
5738 17 1861 1862 1863 1864
5739 17 1877 1862 1863 1878
5740 17 1861 1862 1863 1878
5741 17 241 257 256 244
5742 17 238 257 256 244
5743 17 238 257 241 239
5744 17 238 257 241 242
5745 17 241 257 256 263
5746 17 238 257 256 263
5747 12 1858 1856 1855 1869
5748 8 1857 1856 1855 1869
5749 16 1857 1856 1858 1859
5750 16 1855 1856 1858 1859
5751 15 1857 1856 1858 1872
5752 16 1857 1856 1858 1872
5753 16 1855 1856 1858 1872
5754 17 242 243 244 245
5755 17 242 243 244 256
5756 17 244 243 242 258
5757 17 245 244 256 257
5758 10 243 244 245 246
5759 17 243 244 256 257
5760 17 256 244 243 259
5761 17 245 244 243 259
5762 17 245 244 256 263
5763 17 243 244 256 263
5764 17 246 255 254 252
5765 17 246 255 254 249
5766 17 247 246 255 254
5767 17 245 246 247 248
5768 17 245 246 255 254
5769 17 255 246 247 260
5770 17 247 246 255 262
5771 17 245 246 247 260
5772 17 245 246 255 262
5773 10 246 245 244 256
5774 10 244 245 246 247
5775 10 244 245 246 255
5776 17 248 247 246 255
5777 17 246 247 248 249
5778 17 260 247 248 261
5779 17 246 247 248 261
5780 17 247 248 249 250
5781 17 247 248 249 254
5782 17 249 248 247 260
5783 17 691 692 693 694
5784 17 691 692 693 705
5785 17 693 692 691 707
5786 12 255 254 252 264
5787 8 249 254 252 253
5788 12 249 254 252 264
5789 17 252 254 255 262
5790 17 249 254 255 262
5791 12 254 249 250 264
5792 17 250 249 254 252
5793 17 250 249 254 255
5794 8 248 249 250 251
5795 12 248 249 250 264
5796 17 248 249 254 252
5797 17 248 249 254 255
5798 17 254 249 248 261
5799 17 250 249 248 261
5800 8 1886 1885 1887 1888
5801 8 1886 1885 1887 1903
5802 12 1853 1885 1887 1888
5803 12 1853 1885 1887 1903
5804 17 2092 2101 2100 2098
5805 17 2092 2101 2100 2095
5806 17 269 268 277 278
5807 10 267 268 269 270
5808 17 267 268 277 278
5809 17 277 268 267 280
5810 17 269 268 267 280
5811 17 269 268 277 285
5812 17 267 268 277 285
5813 17 2093 2094 2095 2096
5814 17 2093 2094 2095 2100
5815 17 2095 2094 2093 2106
5816 17 1894 1893 1892 1901
5817 17 1892 1893 1894 1895
5818 17 1906 1893 1894 1907
5819 17 1892 1893 1894 1907
5820 10 1892 1891 1890 1902
5821 10 1890 1891 1892 1893
5822 10 1890 1891 1892 1901
5823 17 2112 2113 2114 2115
5824 17 2112 2113 2114 2123
5825 17 2114 2113 2112 2125
5826 17 1891 1890 1902 1903
5827 10 1889 1890 1891 1892
5828 17 1889 1890 1902 1903
5829 17 1902 1890 1889 1905
5830 17 1891 1890 1889 1905
5831 17 1891 1890 1902 1909
5832 17 1889 1890 1902 1909
5833 17 2487 2488 2489 2490
5834 17 2487 2488 2489 2501
5835 17 2489 2488 2487 2503
5836 17 2486 2502 2501 2489
5837 17 2483 2502 2501 2489
5838 17 2483 2502 2486 2484
5839 17 2483 2502 2486 2487
5840 17 2486 2502 2501 2508
5841 17 2483 2502 2501 2508
5842 17 285 277 278 286
5843 17 268 277 278 286
5844 17 266 267 268 269
5845 17 266 267 268 277
5846 17 268 267 266 279
5847 17 2112 2111 2124 2123
5848 17 2110 2111 2112 2113
5849 17 2110 2111 2124 2123
5850 17 2124 2111 2112 2125
5851 17 2112 2111 2124 2132
5852 17 2110 2111 2112 2125
5853 17 2110 2111 2124 2132
5854 12 2101 2100 2098 2110
5855 8 2095 2100 2098 2099
5856 12 2095 2100 2098 2110
5857 17 2098 2100 2101 2108
5858 17 2095 2100 2101 2108
5859 16 2100 2098 2110 2111
5860 8 2099 2098 2100 2101
5861 16 2099 2098 2110 2111
5862 17 2488 2487 2486 2502
5863 17 2486 2487 2488 2489
5864 17 2503 2487 2488 2504
5865 17 2486 2487 2488 2504
5866 17 1888 1887 1903 1902
5867 17 1885 1887 1888 1889
5868 17 1885 1887 1903 1902
5869 17 1903 1887 1888 1904
5870 17 1885 1887 1888 1904
5871 17 1888 1889 1890 1891
5872 17 1888 1889 1890 1902
5873 17 1890 1889 1888 1904
5874 17 1889 1888 1887 1903
5875 17 1887 1888 1889 1890
5876 17 1904 1888 1889 1905
5877 17 1887 1888 1889 1905
5878 16 254 252 264 265
5879 8 253 252 254 255
5880 16 253 252 264 265
5881 8 251 250 249 254
5882 16 251 250 264 265
5883 16 251 250 264 252
5884 16 249 250 264 265
5885 16 249 250 264 252
5886 11 252 264 265 266
5887 11 252 264 265 278
5888 11 250 264 265 266
5889 11 250 264 265 278
5890 16 250 264 252 253
5891 16 250 264 252 254
5892 11 2098 2110 2111 2112
5893 11 2098 2110 2111 2124
5894 11 2096 2110 2111 2112
5895 11 2096 2110 2111 2124
5896 16 2096 2110 2098 2099
5897 16 2096 2110 2098 2100
5898 12 2100 2095 2096 2110
5899 17 2096 2095 2100 2098
5900 17 2096 2095 2100 2101
5901 8 2094 2095 2096 2097
5902 12 2094 2095 2096 2110
5903 17 2094 2095 2100 2098
5904 17 2094 2095 2100 2101
5905 17 2100 2095 2094 2107
5906 17 2096 2095 2094 2107
5907 8 2097 2096 2095 2100
5908 16 2097 2096 2110 2111
5909 16 2097 2096 2110 2098
5910 16 2095 2096 2110 2111
5911 16 2095 2096 2110 2098
5912 17 265 278 277 268
5913 17 265 278 277 285
5914 17 266 265 278 277
5915 17 264 265 266 267
5916 17 264 265 278 277
5917 17 278 265 266 279
5918 17 266 265 278 286
5919 17 264 265 266 279
5920 17 264 265 278 286
5921 17 267 266 265 278
5922 17 265 266 267 268
5923 17 279 266 267 280
5924 17 265 266 267 280
5925 17 2113 2112 2111 2124
5926 17 2111 2112 2113 2114
5927 17 2125 2112 2113 2126
5928 17 2111 2112 2113 2126
5929 17 2487 2486 2502 2501
5930 17 2484 2486 2487 2488
5931 17 2484 2486 2502 2501
5932 17 2502 2486 2487 2503
5933 17 2484 2486 2487 2503
5934 8 2485 2484 2486 2487
5935 8 2485 2484 2486 2502
5936 12 2469 2484 2486 2487
5937 12 2469 2484 2486 2502
5938 16 2484 2469 2483 2502
5939 16 2483 2469 2484 2485
5940 16 2483 2469 2484 2486
5941 16 2468 2469 2483 2482
5942 16 2468 2469 2483 2502
5943 16 2468 2469 2484 2485
5944 16 2468 2469 2484 2486
5945 8 1487 1486 1488 1489
5946 8 1487 1486 1488 1504
5947 12 1471 1486 1488 1489
5948 12 1471 1486 1488 1504
5949 17 1490 1489 1488 1504
5950 17 1488 1489 1490 1491
5951 17 1505 1489 1490 1506
5952 17 1488 1489 1490 1506
5953 17 1480 1472 1473 1481
5954 17 1470 1472 1473 1481
5955 17 1489 1488 1504 1503
5956 17 1486 1488 1489 1490
5957 17 1486 1488 1504 1503
5958 17 1504 1488 1489 1505
5959 17 1486 1488 1489 1505
5960 17 1356 1355 1354 1360
5961 17 1354 1355 1356 1357
5962 17 1367 1355 1356 1368
5963 17 1354 1355 1356 1368
5964 17 1355 1354 1360 1359
5965 17 1353 1354 1355 1356
5966 17 1353 1354 1360 1359
5967 17 1360 1354 1355 1367
5968 17 1355 1354 1360 1370
5969 17 1353 1354 1355 1367
5970 17 1353 1354 1360 1370
5971 17 1354 1360 1359 1357
5972 17 1354 1360 1359 1369
5973 10 1354 1353 1352 1361
5974 10 1352 1353 1354 1355
5975 10 1352 1353 1354 1360
5976 16 1486 1471 1485 1504
5977 16 1485 1471 1486 1487
5978 16 1485 1471 1486 1488
5979 16 1470 1471 1485 1484
5980 16 1470 1471 1485 1504
5981 16 1470 1471 1486 1487
5982 16 1470 1471 1486 1488
5983 11 1472 1470 1471 1485
5984 11 1472 1470 1471 1486
5985 17 1471 1470 1472 1473
5986 11 1469 1470 1471 1485
5987 11 1469 1470 1471 1486
5988 17 1469 1470 1472 1473
5989 17 1472 1470 1469 1479
5990 17 1471 1470 1469 1479
5991 17 1471 1470 1472 1480
5992 17 1469 1470 1472 1480
5993 17 1488 1504 1503 1491
5994 17 1485 1504 1503 1491
5995 17 1485 1504 1488 1486
5996 17 1485 1504 1488 1489
5997 17 1488 1504 1503 1510
5998 17 1485 1504 1503 1510
5999 17 1353 1352 1361 1362
6000 10 1351 1352 1353 1354
6001 17 1351 1352 1361 1362
6002 17 1361 1352 1351 1366
6003 17 1353 1352 1351 1366
6004 17 1353 1352 1361 1371
6005 17 1351 1352 1361 1371
6006 17 1371 1361 1362 1372
6007 17 1352 1361 1362 1372
6008 17 1350 1351 1352 1353
6009 17 1350 1351 1352 1361
6010 17 1352 1351 1350 1365
6011 17 1349 1362 1361 1352
6012 17 1349 1362 1361 1371
6013 17 1350 1349 1362 1361
6014 17 1348 1349 1350 1351
6015 17 1348 1349 1362 1361
6016 14 1362 1349 1348 1363
6017 14 1362 1349 1348 1364
6018 17 1362 1349 1350 1365
6019 14 1350 1349 1348 1363
6020 14 1350 1349 1348 1364
6021 17 1350 1349 1362 1372
6022 17 1348 1349 1350 1365
6023 17 1348 1349 1362 1372
6024 17 1351 1350 1349 1362
6025 17 1349 1350 1351 1352
6026 17 1365 1350 1351 1366
6027 17 1349 1350 1351 1366
6028 17 1468 1469 1470 1471
6029 17 1468 1469 1470 1472
6030 17 1470 1469 1468 1478
6031 17 1690 1689 1688 1704
6032 17 1688 1689 1690 1691
6033 17 1705 1689 1690 1706
6034 17 1688 1689 1690 1706
6035 8 1484 1485 1504 1503
6036 8 1484 1485 1504 1488
6037 16 1484 1485 1471 1486
6038 12 1471 1485 1504 1503
6039 12 1471 1485 1504 1488
6040 17 1689 1690 1691 1692
6041 17 1689 1690 1691 1703
6042 17 1691 1690 1689 1705
6043 17 1489 1490 1491 1492
6044 17 1489 1490 1491 1503
6045 17 1491 1490 1489 1505
6046 17 1492 1491 1503 1504
6047 10 1490 1491 1492 1493
6048 17 1490 1491 1503 1504
6049 17 1503 1491 1490 1506
6050 17 1492 1491 1490 1506
6051 17 1492 1491 1503 1510
6052 17 1490 1491 1503 1510
6053 16 1601 1599 1611 1612
6054 8 1600 1599 1601 1602
6055 16 1600 1599 1611 1612
6056 8 1584 1585 1604 1603
6057 8 1584 1585 1604 1588
6058 16 1584 1585 1571 1586
6059 12 1571 1585 1604 1603
6060 12 1571 1585 1604 1588
6061 17 2442 2443 2444 2445
6062 17 2442 2443 2444 2449
6063 17 2444 2443 2442 2455
6064 17 2691 2681 2682 2692
6065 17 2679 2681 2682 2692
6066 8 2446 2445 2444 2449
6067 16 2446 2445 2459 2460
6068 16 2446 2445 2459 2447
6069 16 2444 2445 2459 2460
6070 16 2444 2445 2459 2447
6071 12 2449 2444 2445 2459
6072 17 2445 2444 2449 2447
6073 17 2445 2444 2449 2450
6074 8 2443 2444 2445 2446
6075 12 2443 2444 2445 2459
6076 17 2443 2444 2449 2447
6077 17 2443 2444 2449 2450
6078 17 2449 2444 2443 2456
6079 17 2445 2444 2443 2456
6080 16 1451 1449 1461 1462
6081 8 1450 1449 1451 1452
6082 16 1450 1449 1461 1462
6083 16 1651 1649 1661 1662
6084 8 1650 1649 1651 1652
6085 16 1650 1649 1661 1662
6086 17 2443 2442 2441 2450
6087 17 2441 2442 2443 2444
6088 17 2455 2442 2443 2456
6089 17 2441 2442 2443 2456
6090 17 1469 1468 1467 1473
6091 17 1467 1468 1469 1470
6092 17 1478 1468 1469 1479
6093 17 1467 1468 1469 1479
6094 11 1622 1620 1621 1635
6095 11 1622 1620 1621 1636
6096 17 1621 1620 1622 1623
6097 11 1619 1620 1621 1635
6098 11 1619 1620 1621 1636
6099 17 1619 1620 1622 1623
6100 17 1622 1620 1619 1629
6101 17 1621 1620 1619 1629
6102 17 1621 1620 1622 1630
6103 17 1619 1620 1622 1630
6104 17 1467 1473 1472 1470
6105 17 1467 1473 1472 1480
6106 17 1064 1065 1066 1067
6107 17 1064 1065 1066 1075
6108 17 1066 1065 1064 1077
6109 17 1468 1467 1473 1472
6110 17 1466 1467 1468 1469
6111 17 1466 1467 1473 1472
6112 17 1473 1467 1468 1478
6113 17 1468 1467 1473 1481
6114 17 1466 1467 1468 1478
6115 17 1466 1467 1473 1481
6116 10 1467 1466 1465 1474
6117 10 1465 1466 1467 1468
6118 10 1465 1466 1467 1473
6119 11 1449 1461 1462 1463
6120 11 1449 1461 1462 1475
6121 11 1447 1461 1462 1463
6122 11 1447 1461 1462 1475
6123 16 1447 1461 1449 1450
6124 16 1447 1461 1449 1451
6125 17 1463 1462 1475 1474
6126 17 1461 1462 1463 1464
6127 17 1461 1462 1475 1474
6128 17 1475 1462 1463 1476
6129 17 1463 1462 1475 1483
6130 17 1461 1462 1463 1476
6131 17 1461 1462 1475 1483
6132 17 1464 1463 1462 1475
6133 17 1462 1463 1464 1465
6134 17 1476 1463 1464 1477
6135 17 1462 1463 1464 1477
6136 17 1462 1475 1474 1465
6137 17 1462 1475 1474 1482
6138 17 1463 1464 1465 1466
6139 17 1463 1464 1465 1474
6140 17 1465 1464 1463 1476
6141 17 1482 1474 1475 1483
6142 17 1465 1474 1475 1483
6143 17 1466 1465 1474 1475
6144 10 1464 1465 1466 1467
6145 17 1464 1465 1474 1475
6146 17 1474 1465 1464 1477
6147 17 1466 1465 1464 1477
6148 17 1466 1465 1474 1482
6149 17 1464 1465 1474 1482
6150 8 1448 1447 1446 1451
6151 16 1448 1447 1461 1462
6152 16 1448 1447 1461 1449
6153 16 1446 1447 1461 1462
6154 16 1446 1447 1461 1449
6155 8 1634 1635 1654 1653
6156 8 1634 1635 1654 1638
6157 16 1634 1635 1621 1636
6158 12 1621 1635 1654 1653
6159 12 1621 1635 1654 1638
6160 12 1651 1646 1647 1661
6161 17 1647 1646 1651 1649
6162 17 1647 1646 1651 1652
6163 8 1645 1646 1647 1648
6164 12 1645 1646 1647 1661
6165 17 1645 1646 1651 1649
6166 17 1645 1646 1651 1652
6167 17 1651 1646 1645 1658
6168 17 1647 1646 1645 1658
6169 17 1067 1066 1075 1076
6170 10 1065 1066 1067 1068
6171 17 1065 1066 1075 1076
6172 17 1075 1066 1065 1078
6173 17 1067 1066 1065 1078
6174 17 1067 1066 1075 1083
6175 17 1065 1066 1075 1083
6176 10 1068 1067 1066 1075
6177 10 1066 1067 1068 1069
6178 10 1066 1067 1068 1074
6179 17 1068 1074 1073 1071
6180 17 1068 1074 1073 1081
6181 12 1652 1651 1649 1661
6182 8 1646 1651 1649 1650
6183 12 1646 1651 1649 1661
6184 17 1649 1651 1652 1659
6185 17 1646 1651 1652 1659
6186 17 1069 1068 1074 1073
6187 17 1067 1068 1069 1070
6188 17 1067 1068 1074 1073
6189 17 1074 1068 1069 1079
6190 17 1069 1068 1074 1082
6191 17 1067 1068 1069 1079
6192 17 1067 1068 1074 1082
6193 17 1643 1652 1651 1649
6194 17 1643 1652 1651 1646
6195 17 1644 1643 1652 1651
6196 17 1642 1643 1644 1645
6197 17 1642 1643 1652 1651
6198 17 1652 1643 1644 1657
6199 17 1644 1643 1652 1659
6200 17 1642 1643 1644 1657
6201 17 1642 1643 1652 1659
6202 10 1643 1642 1641 1653
6203 10 1641 1642 1643 1644
6204 10 1641 1642 1643 1652
6205 17 2680 2679 2681 2682
6206 17 2678 2679 2681 2682
6207 17 2681 2679 2678 2688
6208 14 2681 2679 2680 2689
6209 14 2681 2679 2680 2690
6210 17 2680 2679 2678 2688
6211 17 2680 2679 2681 2691
6212 14 2678 2679 2680 2689
6213 14 2678 2679 2680 2690
6214 17 2678 2679 2681 2691
6215 17 1638 1654 1653 1641
6216 17 1635 1654 1653 1641
6217 17 1635 1654 1638 1636
6218 17 1635 1654 1638 1639
6219 17 1638 1654 1653 1660
6220 17 1635 1654 1653 1660
6221 17 1642 1641 1653 1654
6222 10 1640 1641 1642 1643
6223 17 1640 1641 1653 1654
6224 17 1653 1641 1640 1656
6225 17 1642 1641 1640 1656
6226 17 1642 1641 1653 1660
6227 17 1640 1641 1653 1660
6228 12 1451 1446 1447 1461
6229 17 1447 1446 1451 1449
6230 17 1447 1446 1451 1452
6231 8 1445 1446 1447 1448
6232 12 1445 1446 1447 1461
6233 17 1445 1446 1451 1449
6234 17 1445 1446 1451 1452
6235 17 1451 1446 1445 1458
6236 17 1447 1446 1445 1458
6237 17 1070 1069 1068 1074
6238 17 1068 1069 1070 1071
6239 17 1079 1069 1070 1080
6240 17 1068 1069 1070 1080
6241 17 1330 1329 1335 1334
6242 17 1328 1329 1330 1331
6243 17 1328 1329 1335 1334
6244 17 1335 1329 1330 1340
6245 17 1330 1329 1335 1345
6246 17 1328 1329 1330 1340
6247 17 1328 1329 1335 1345
6248 17 1331 1330 1329 1335
6249 17 1329 1330 1331 1332
6250 17 1340 1330 1331 1341
6251 17 1329 1330 1331 1341
6252 17 1329 1335 1334 1332
6253 17 1329 1335 1334 1344
6254 17 1330 1331 1332 1333
6255 17 1330 1331 1332 1334
6256 17 1332 1331 1330 1340
6257 17 1344 1334 1335 1345
6258 17 1332 1334 1335 1345
6259 17 1333 1332 1334 1335
6260 17 1331 1332 1334 1335
6261 17 1334 1332 1331 1341
6262 14 1334 1332 1333 1342
6263 14 1334 1332 1333 1343
6264 17 1333 1332 1331 1341
6265 17 1333 1332 1334 1344
6266 14 1331 1332 1333 1342
6267 14 1331 1332 1333 1343
6268 17 1331 1332 1334 1344
6269 17 1756 1755 1754 1763
6270 17 1754 1755 1756 1757
6271 17 1768 1755 1756 1769
6272 17 1754 1755 1756 1769
6273 17 1755 1756 1757 1758
6274 17 1755 1756 1757 1762
6275 17 1757 1756 1755 1768
6276 17 1755 1754 1763 1762
6277 17 1753 1754 1755 1756
6278 17 1753 1754 1763 1762
6279 17 1763 1754 1755 1768
6280 17 1755 1754 1763 1770
6281 17 1753 1754 1755 1768
6282 17 1753 1754 1763 1770
6283 12 1762 1757 1758 1772
6284 17 1758 1757 1762 1760
6285 17 1758 1757 1762 1763
6286 8 1756 1757 1758 1759
6287 12 1756 1757 1758 1772
6288 17 1756 1757 1762 1760
6289 17 1756 1757 1762 1763
6290 17 1762 1757 1756 1769
6291 17 1758 1757 1756 1769
6292 17 1644 1645 1646 1647
6293 17 1644 1645 1646 1651
6294 17 1646 1645 1644 1657
6295 17 1645 1644 1643 1652
6296 17 1643 1644 1645 1646
6297 17 1657 1644 1645 1658
6298 17 1643 1644 1645 1658
6299 17 1069 1070 1071 1072
6300 17 1069 1070 1071 1073
6301 17 1071 1070 1069 1079
6302 17 1754 1763 1762 1760
6303 17 1754 1763 1762 1757
6304 8 1759 1758 1757 1762
6305 16 1759 1758 1772 1773
6306 16 1759 1758 1772 1760
6307 16 1757 1758 1772 1773
6308 16 1757 1758 1772 1760
6309 12 1763 1762 1760 1772
6310 8 1757 1762 1760 1761
6311 12 1757 1762 1760 1772
6312 17 1760 1762 1763 1770
6313 17 1757 1762 1763 1770
6314 8 1883 1884 1903 1902
6315 8 1883 1884 1903 1887
6316 16 1883 1884 1853 1885
6317 12 1853 1884 1903 1902
6318 12 1853 1884 1903 1887
6319 17 1887 1903 1902 1890
6320 17 1884 1903 1902 1890
6321 17 1884 1903 1887 1885
6322 17 1884 1903 1887 1888
6323 17 1887 1903 1902 1909
6324 17 1884 1903 1902 1909
6325 12 1602 1601 1599 1611
6326 8 1596 1601 1599 1600
6327 12 1596 1601 1599 1611
6328 17 1599 1601 1602 1609
6329 17 1596 1601 1602 1609
6330 12 1601 1596 1597 1611
6331 17 1597 1596 1601 1599
6332 17 1597 1596 1601 1602
6333 8 1595 1596 1597 1598
6334 12 1595 1596 1597 1611
6335 17 1595 1596 1601 1599
6336 17 1595 1596 1601 1602
6337 17 1601 1596 1595 1608
6338 17 1597 1596 1595 1608
6339 10 1493 1492 1491 1503
6340 10 1491 1492 1493 1494
6341 10 1491 1492 1493 1502
6342 8 1498 1497 1496 1501
6343 16 1498 1497 1511 1512
6344 16 1498 1497 1511 1499
6345 16 1496 1497 1511 1512
6346 16 1496 1497 1511 1499
6347 16 1501 1499 1511 1512
6348 8 1500 1499 1501 1502
6349 16 1500 1499 1511 1512
6350 11 1760 1772 1773 1774
6351 11 1760 1772 1773 1786
6352 11 1758 1772 1773 1774
6353 11 1758 1772 1773 1786
6354 16 1758 1772 1760 1761
6355 16 1758 1772 1760 1762
6356 17 1594 1595 1596 1597
6357 17 1594 1595 1596 1601
6358 17 1596 1595 1594 1607
6359 16 1762 1760 1772 1773
6360 8 1761 1760 1762 1763
6361 16 1761 1760 1772 1773
6362 17 1595 1594 1593 1602
6363 17 1593 1594 1595 1596
6364 17 1607 1594 1595 1608
6365 17 1593 1594 1595 1608
6366 17 1594 1593 1602 1601
6367 17 1592 1593 1594 1595
6368 17 1592 1593 1602 1601
6369 17 1602 1593 1594 1607
6370 17 1594 1593 1602 1609
6371 17 1592 1593 1594 1607
6372 17 1592 1593 1602 1609
6373 10 1593 1592 1591 1603
6374 10 1591 1592 1593 1594
6375 10 1591 1592 1593 1602
6376 17 1593 1602 1601 1599
6377 17 1593 1602 1601 1596
6378 12 1501 1496 1497 1511
6379 17 1497 1496 1501 1499
6380 17 1497 1496 1501 1502
6381 8 1495 1496 1497 1498
6382 12 1495 1496 1497 1511
6383 17 1495 1496 1501 1499
6384 17 1495 1496 1501 1502
6385 17 1501 1496 1495 1508
6386 17 1497 1496 1495 1508
6387 17 1494 1495 1496 1497
6388 17 1494 1495 1496 1501
6389 17 1496 1495 1494 1507
6390 17 1495 1494 1493 1502
6391 17 1493 1494 1495 1496
6392 17 1507 1494 1495 1508
6393 17 1493 1494 1495 1508
6394 12 1502 1501 1499 1511
6395 8 1496 1501 1499 1500
6396 12 1496 1501 1499 1511
6397 17 1499 1501 1502 1509
6398 17 1496 1501 1502 1509
6399 17 1494 1493 1502 1501
6400 17 1492 1493 1494 1495
6401 17 1492 1493 1502 1501
6402 17 1502 1493 1494 1507
6403 17 1494 1493 1502 1509
6404 17 1492 1493 1494 1507
6405 17 1492 1493 1502 1509
6406 17 1493 1502 1501 1499
6407 17 1493 1502 1501 1496
6408 17 1775 1774 1773 1786
6409 17 1773 1774 1775 1776
6410 17 1787 1774 1775 1788
6411 17 1773 1774 1775 1788
6412 17 1592 1591 1603 1604
6413 10 1590 1591 1592 1593
6414 17 1590 1591 1603 1604
6415 17 1603 1591 1590 1606
6416 17 1592 1591 1590 1606
6417 17 1592 1591 1603 1610
6418 17 1590 1591 1603 1610
6419 17 1588 1604 1603 1591
6420 17 1585 1604 1603 1591
6421 17 1585 1604 1588 1586
6422 17 1585 1604 1588 1589
6423 17 1588 1604 1603 1610
6424 17 1585 1604 1603 1610
6425 17 994 1003 1002 1000
6426 17 994 1003 1002 997
6427 12 1252 1247 1248 1262
6428 17 1248 1247 1252 1250
6429 17 1248 1247 1252 1253
6430 8 1246 1247 1248 1249
6431 12 1246 1247 1248 1262
6432 17 1246 1247 1252 1250
6433 17 1246 1247 1252 1253
6434 17 1252 1247 1246 1259
6435 17 1248 1247 1246 1259
6436 12 1003 1002 1000 1012
6437 8 997 1002 1000 1001
6438 12 997 1002 1000 1012
6439 17 1000 1002 1003 1010
6440 17 997 1002 1003 1010
6441 12 1002 997 998 1012
6442 17 998 997 1002 1000
6443 17 998 997 1002 1003
6444 8 996 997 998 999
6445 12 996 997 998 1012
6446 17 996 997 1002 1000
6447 17 996 997 1002 1003
6448 17 1002 997 996 1009
6449 17 998 997 996 1009
6450 17 1245 1244 1253 1252
6451 17 1243 1244 1245 1246
6452 17 1243 1244 1253 1252
6453 17 1253 1244 1245 1258
6454 17 1245 1244 1253 1260
6455 17 1243 1244 1245 1258
6456 17 1243 1244 1253 1260
6457 17 1245 1246 1247 1248
6458 17 1245 1246 1247 1252
6459 17 1247 1246 1245 1258
6460 17 1246 1245 1244 1253
6461 17 1244 1245 1246 1247
6462 17 1258 1245 1246 1259
6463 17 1244 1245 1246 1259
6464 17 1017 1016 1025 1026
6465 10 1015 1016 1017 1018
6466 17 1015 1016 1025 1026
6467 17 1025 1016 1015 1028
6468 17 1017 1016 1015 1028
6469 17 1017 1016 1025 1033
6470 17 1015 1016 1025 1033
6471 17 1694 1693 1702 1701
6472 17 1692 1693 1694 1695
6473 17 1692 1693 1702 1701
6474 17 1702 1693 1694 1707
6475 17 1694 1693 1702 1709
6476 17 1692 1693 1694 1707
6477 17 1692 1693 1702 1709
6478 17 1693 1702 1701 1699
6479 17 1693 1702 1701 1696
6480 17 1695 1694 1693 1702
6481 17 1693 1694 1695 1696
6482 17 1707 1694 1695 1708
6483 17 1693 1694 1695 1708
6484 17 1694 1695 1696 1697
6485 17 1694 1695 1696 1701
6486 17 1696 1695 1694 1707
6487 12 1701 1696 1697 1711
6488 17 1697 1696 1701 1699
6489 17 1697 1696 1701 1702
6490 8 1695 1696 1697 1698
6491 12 1695 1696 1697 1711
6492 17 1695 1696 1701 1699
6493 17 1695 1696 1701 1702
6494 17 1701 1696 1695 1708
6495 17 1697 1696 1695 1708
6496 17 1014 1015 1016 1017
6497 17 1014 1015 1016 1025
6498 17 1016 1015 1014 1027
6499 17 1015 1014 1013 1026
6500 17 1013 1014 1015 1016
6501 17 1027 1014 1015 1028
6502 17 1013 1014 1015 1028
6503 8 999 998 997 1002
6504 16 999 998 1012 1013
6505 16 999 998 1012 1000
6506 16 997 998 1012 1013
6507 16 997 998 1012 1000
6508 11 1000 1012 1013 1014
6509 11 1000 1012 1013 1026
6510 11 998 1012 1013 1014
6511 11 998 1012 1013 1026
6512 16 998 1012 1000 1001
6513 16 998 1012 1000 1002
6514 16 1002 1000 1012 1013
6515 8 1001 1000 1002 1003
6516 16 1001 1000 1012 1013
6517 17 1014 1013 1026 1025
6518 17 1012 1013 1014 1015
6519 17 1012 1013 1026 1025
6520 17 1026 1013 1014 1027
6521 17 1014 1013 1026 1034
6522 17 1012 1013 1014 1027
6523 17 1012 1013 1026 1034
6524 17 1033 1025 1026 1034
6525 17 1016 1025 1026 1034
6526 17 1013 1026 1025 1016
6527 17 1013 1026 1025 1033
6528 12 1702 1701 1699 1711
6529 8 1696 1701 1699 1700
6530 12 1696 1701 1699 1711
6531 17 1699 1701 1702 1709
6532 17 1696 1701 1702 1709
6533 8 1698 1697 1696 1701
6534 16 1698 1697 1711 1712
6535 16 1698 1697 1711 1699
6536 16 1696 1697 1711 1712
6537 16 1696 1697 1711 1699
6538 17 1240 1241 1242 1243
6539 17 1240 1241 1242 1254
6540 17 1242 1241 1240 1256
6541 17 1241 1240 1239 1255
6542 17 1239 1240 1241 1242
6543 17 1256 1240 1241 1257
6544 17 1239 1240 1241 1257
6545 8 1238 1237 1239 1240
6546 8 1238 1237 1239 1255
6547 12 1222 1237 1239 1240
6548 12 1222 1237 1239 1255
6549 16 987 955 986 1005
6550 16 986 955 987 988
6551 16 986 955 987 989
6552 16 954 955 986 985
6553 16 954 955 986 1005
6554 16 954 955 987 988
6555 16 954 955 987 989
6556 10 1244 1243 1242 1254
6557 10 1242 1243 1244 1245
6558 10 1242 1243 1244 1253
6559 17 1243 1242 1254 1255
6560 10 1241 1242 1243 1244
6561 17 1241 1242 1254 1255
6562 17 1254 1242 1241 1257
6563 17 1243 1242 1241 1257
6564 17 1243 1242 1254 1261
6565 17 1241 1242 1254 1261
6566 8 985 986 1005 1004
6567 8 985 986 1005 989
6568 16 985 986 955 987
6569 12 955 986 1005 1004
6570 12 955 986 1005 989
6571 13 958 960 961 962
6572 5 958 960 961 962
6573 3 958 960 961 962
6574 1 974 960 961 975
6575 1 974 960 961 976
6576 2 958 960 961 975
6577 2 958 960 961 976
6578 17 954 956 957 958
6579 17 954 956 957 971
6580 12 960 958 957 971
6581 8 959 958 957 971
6582 16 959 958 960 961
6583 16 957 958 960 961
6584 15 959 958 960 974
6585 16 959 958 960 974
6586 16 957 958 960 974
6587 11 956 954 955 986
6588 11 956 954 955 987
6589 17 955 954 956 957
6590 11 953 954 955 986
6591 11 953 954 955 987
6592 17 953 954 956 957
6593 17 956 954 953 972
6594 17 955 954 953 972
6595 17 955 954 956 973
6596 17 953 954 956 973
6597 17 1219 1220 1221 1222
6598 17 1219 1220 1221 1223
6599 17 1221 1220 1219 1229
6600 8 956 957 958 959
6601 12 956 957 958 960
6602 17 971 957 956 973
6603 17 958 957 956 973
6604 17 958 957 971 984
6605 17 956 957 971 984
6606 17 1239 1255 1254 1242
6607 17 1236 1255 1254 1242
6608 17 1236 1255 1239 1237
6609 17 1236 1255 1239 1240
6610 17 1239 1255 1254 1261
6611 17 1236 1255 1254 1261
6612 17 1240 1239 1255 1254
6613 17 1237 1239 1240 1241
6614 17 1237 1239 1255 1254
6615 17 1255 1239 1240 1256
6616 17 1237 1239 1240 1256
6617 11 1223 1221 1222 1236
6618 11 1223 1221 1222 1237
6619 17 1222 1221 1223 1224
6620 11 1220 1221 1222 1236
6621 11 1220 1221 1222 1237
6622 17 1220 1221 1223 1224
6623 17 1223 1221 1220 1230
6624 17 1222 1221 1220 1230
6625 17 1222 1221 1223 1231
6626 17 1220 1221 1223 1231
6627 8 1235 1236 1255 1254
6628 8 1235 1236 1255 1239
6629 16 1235 1236 1222 1237
6630 12 1222 1236 1255 1254
6631 12 1222 1236 1255 1239
6632 16 1237 1222 1236 1255
6633 16 1236 1222 1237 1238
6634 16 1236 1222 1237 1239
6635 16 1221 1222 1236 1235
6636 16 1221 1222 1236 1255
6637 16 1221 1222 1237 1238
6638 16 1221 1222 1237 1239
6639 17 934 935 936 937
6640 17 934 935 936 941
6641 17 936 935 934 947
6642 12 941 936 937 951
6643 17 937 936 941 939
6644 17 937 936 941 942
6645 8 935 936 937 938
6646 12 935 936 937 951
6647 17 935 936 941 939
6648 17 935 936 941 942
6649 17 941 936 935 948
6650 17 937 936 935 948
6651 8 938 937 936 941
6652 16 938 937 951 952
6653 16 938 937 951 939
6654 16 936 937 951 952
6655 16 936 937 951 939
6656 12 942 941 939 951
6657 8 936 941 939 940
6658 12 936 941 939 951
6659 17 939 941 942 949
6660 17 936 941 942 949
6661 17 952 971 957 956
6662 17 952 971 957 958
6663 17 954 953 952 971
6664 17 952 953 954 955
6665 17 952 953 954 956
6666 17 953 952 971 957
6667 17 951 952 953 954
6668 17 951 952 971 957
6669 17 971 952 953 972
6670 17 953 952 971 984
6671 17 951 952 953 972
6672 17 951 952 971 984
6673 11 939 951 952 953
6674 11 939 951 952 971
6675 11 937 951 952 953
6676 11 937 951 952 971
6677 16 937 951 939 940
6678 16 937 951 939 941
6679 16 941 939 951 952
6680 8 940 939 941 942
6681 16 940 939 951 952
6682 16 1102 1100 1112 1113
6683 8 1101 1100 1102 1103
6684 16 1101 1100 1112 1113
6685 10 1754 1753 1752 1764
6686 10 1752 1753 1754 1755
6687 10 1752 1753 1754 1763
6688 17 1081 1073 1074 1082
6689 17 1071 1073 1074 1082
6690 11 1073 1071 1072 1086
6691 11 1073 1071 1072 1087
6692 17 1072 1071 1073 1074
6693 11 1070 1071 1072 1086
6694 11 1070 1071 1072 1087
6695 17 1070 1071 1073 1074
6696 17 1073 1071 1070 1080
6697 17 1072 1071 1070 1080
6698 17 1072 1071 1073 1081
6699 17 1070 1071 1073 1081
6700 16 1087 1072 1086 1105
6701 16 1086 1072 1087 1088
6702 16 1086 1072 1087 1089
6703 16 1071 1072 1086 1085
6704 16 1071 1072 1086 1105
6705 16 1071 1072 1087 1088
6706 16 1071 1072 1087 1089
6707 8 1088 1087 1089 1090
6708 8 1088 1087 1089 1105
6709 12 1072 1087 1089 1090
6710 12 1072 1087 1089 1105
6711 8 1085 1086 1105 1104
6712 8 1085 1086 1105 1089
6713 16 1085 1086 1072 1087
6714 12 1072 1086 1105 1104
6715 12 1072 1086 1105 1089
6716 17 1089 1105 1104 1092
6717 17 1086 1105 1104 1092
6718 17 1086 1105 1089 1087
6719 17 1086 1105 1089 1090
6720 17 1089 1105 1104 1111
6721 17 1086 1105 1104 1111
6722 17 1090 1089 1105 1104
6723 17 1087 1089 1090 1091
6724 17 1087 1089 1105 1104
6725 17 1105 1089 1090 1106
6726 17 1087 1089 1090 1106
6727 10 1094 1093 1092 1104
6728 10 1092 1093 1094 1095
6729 10 1092 1093 1094 1103
6730 17 1093 1092 1104 1105
6731 10 1091 1092 1093 1094
6732 17 1091 1092 1104 1105
6733 17 1104 1092 1091 1107
6734 17 1093 1092 1091 1107
6735 17 1093 1092 1104 1111
6736 17 1091 1092 1104 1111
6737 17 1091 1090 1089 1105
6738 17 1089 1090 1091 1092
6739 17 1106 1090 1091 1107
6740 17 1089 1090 1091 1107
6741 17 1090 1091 1092 1093
6742 17 1090 1091 1092 1104
6743 17 1092 1091 1090 1106
6744 17 1753 1752 1764 1765
6745 10 1751 1752 1753 1754
6746 17 1751 1752 1764 1765
6747 17 1764 1752 1751 1767
6748 17 1753 1752 1751 1767
6749 17 1753 1752 1764 1771
6750 17 1751 1752 1764 1771
6751 17 1750 1751 1752 1753
6752 17 1750 1751 1752 1764
6753 17 1752 1751 1750 1766
6754 17 1094 1103 1102 1100
6755 17 1094 1103 1102 1097
6756 17 1095 1094 1103 1102
6757 17 1093 1094 1095 1096
6758 17 1093 1094 1103 1102
6759 17 1103 1094 1095 1108
6760 17 1095 1094 1103 1110
6761 17 1093 1094 1095 1108
6762 17 1093 1094 1103 1110
6763 12 1103 1102 1100 1112
6764 8 1097 1102 1100 1101
6765 12 1097 1102 1100 1112
6766 17 1100 1102 1103 1110
6767 17 1097 1102 1103 1110
6768 11 1699 1711 1712 1713
6769 11 1699 1711 1712 1731
6770 11 1697 1711 1712 1713
6771 11 1697 1711 1712 1731
6772 16 1697 1711 1699 1700
6773 16 1697 1711 1699 1701
6774 16 1701 1699 1711 1712
6775 8 1700 1699 1701 1702
6776 16 1700 1699 1711 1712
6777 17 1749 1765 1764 1752
6778 17 1746 1765 1764 1752
6779 17 1746 1765 1749 1747
6780 17 1746 1765 1749 1750
6781 17 1749 1765 1764 1771
6782 17 1746 1765 1764 1771
6783 8 1745 1746 1765 1764
6784 8 1745 1746 1765 1749
6785 16 1745 1746 1715 1747
6786 12 1715 1746 1765 1764
6787 12 1715 1746 1765 1749
6788 17 1751 1750 1749 1765
6789 17 1749 1750 1751 1752
6790 17 1766 1750 1751 1767
6791 17 1749 1750 1751 1767
6792 12 1203 1202 1200 1212
6793 8 1197 1202 1200 1201
6794 12 1197 1202 1200 1212
6795 17 1200 1202 1203 1210
6796 17 1197 1202 1203 1210
6797 17 1714 1716 1717 1718
6798 17 1714 1716 1717 1731
6799 8 1716 1717 1718 1719
6800 12 1716 1717 1718 1720
6801 17 1731 1717 1716 1733
6802 17 1718 1717 1716 1733
6803 17 1718 1717 1731 1744
6804 17 1716 1717 1731 1744
6805 16 1187 1172 1186 1205
6806 16 1186 1172 1187 1188
6807 16 1186 1172 1187 1189
6808 16 1171 1172 1186 1185
6809 16 1171 1172 1186 1205
6810 16 1171 1172 1187 1188
6811 16 1171 1172 1187 1189
6812 8 1188 1187 1189 1190
6813 8 1188 1187 1189 1205
6814 12 1172 1187 1189 1190
6815 12 1172 1187 1189 1205
6816 17 1750 1749 1765 1764
6817 17 1747 1749 1750 1751
6818 17 1747 1749 1765 1764
6819 17 1765 1749 1750 1766
6820 17 1747 1749 1750 1766
6821 17 1713 1712 1731 1717
6822 17 1711 1712 1713 1714
6823 17 1711 1712 1731 1717
6824 17 1731 1712 1713 1732
6825 17 1713 1712 1731 1744
6826 17 1711 1712 1713 1732
6827 17 1711 1712 1731 1744
6828 17 1712 1731 1717 1716
6829 17 1712 1731 1717 1718
6830 8 1748 1747 1749 1750
6831 8 1748 1747 1749 1765
6832 12 1715 1747 1749 1750
6833 12 1715 1747 1749 1765
6834 17 1714 1713 1712 1731
6835 17 1712 1713 1714 1715
6836 17 1712 1713 1714 1716
6837 11 1716 1714 1715 1746
6838 11 1716 1714 1715 1747
6839 17 1715 1714 1716 1717
6840 11 1713 1714 1715 1746
6841 11 1713 1714 1715 1747
6842 17 1713 1714 1716 1717
6843 17 1716 1714 1713 1732
6844 17 1715 1714 1713 1732
6845 17 1715 1714 1716 1733
6846 17 1713 1714 1716 1733
6847 16 1747 1715 1746 1765
6848 16 1746 1715 1747 1748
6849 16 1746 1715 1747 1749
6850 16 1714 1715 1746 1745
6851 16 1714 1715 1746 1765
6852 16 1714 1715 1747 1748
6853 16 1714 1715 1747 1749
6854 17 1195 1194 1203 1202
6855 17 1193 1194 1195 1196
6856 17 1193 1194 1203 1202
6857 17 1203 1194 1195 1208
6858 17 1195 1194 1203 1210
6859 17 1193 1194 1195 1208
6860 17 1193 1194 1203 1210
6861 10 1194 1193 1192 1204
6862 10 1192 1193 1194 1195
6863 10 1192 1193 1194 1203
6864 17 1194 1203 1202 1200
6865 17 1194 1203 1202 1197
6866 17 1190 1191 1192 1193
6867 17 1190 1191 1192 1204
6868 17 1192 1191 1190 1206
6869 17 1193 1192 1204 1205
6870 10 1191 1192 1193 1194
6871 17 1191 1192 1204 1205
6872 17 1204 1192 1191 1207
6873 17 1193 1192 1191 1207
6874 17 1193 1192 1204 1211
6875 17 1191 1192 1204 1211
6876 8 1185 1186 1205 1204
6877 8 1185 1186 1205 1189
6878 16 1185 1186 1172 1187
6879 12 1172 1186 1205 1204
6880 12 1172 1186 1205 1189
6881 17 1190 1189 1205 1204
6882 17 1187 1189 1190 1191
6883 17 1187 1189 1205 1204
6884 17 1205 1189 1190 1206
6885 17 1187 1189 1190 1206
6886 17 1189 1205 1204 1192
6887 17 1186 1205 1204 1192
6888 17 1186 1205 1189 1187
6889 17 1186 1205 1189 1190
6890 17 1189 1205 1204 1211
6891 17 1186 1205 1204 1211
6892 17 1191 1190 1189 1205
6893 17 1189 1190 1191 1192
6894 17 1206 1190 1191 1207
6895 17 1189 1190 1191 1207
6896 17 2586 2602 2601 2589
6897 17 2583 2602 2601 2589
6898 17 2583 2602 2586 2584
6899 17 2583 2602 2586 2587
6900 17 2586 2602 2601 2608
6901 17 2583 2602 2601 2608
6902 7 512 513 514 515
6903 7 512 513 514 521
6904 4 514 513 512 526
6905 4 514 513 512 527
6906 16 1202 1200 1212 1213
6907 8 1201 1200 1202 1203
6908 16 1201 1200 1212 1213
6909 17 1233 1225 1226 1234
6910 17 1216 1225 1226 1234
6911 17 1213 1226 1225 1216
6912 17 1213 1226 1225 1233
6913 8 2585 2584 2586 2587
6914 8 2585 2584 2586 2602
6915 12 2569 2584 2586 2587
6916 12 2569 2584 2586 2602
6917 12 2400 2399 2397 2409
6918 8 2394 2399 2397 2398
6919 12 2394 2399 2397 2409
6920 17 2397 2399 2400 2407
6921 17 2394 2399 2400 2407
6922 11 2397 2409 2410 2411
6923 11 2397 2409 2410 2423
6924 11 2395 2409 2410 2411
6925 11 2395 2409 2410 2423
6926 16 2395 2409 2397 2398
6927 16 2395 2409 2397 2399
6928 17 515 514 521 519
6929 17 513 514 515 516
6930 17 513 514 521 519
6931 2 521 514 513 528
6932 2 521 514 513 529
6933 17 521 514 515 530
6934 2 515 514 513 528
6935 2 515 514 513 529
6936 17 515 514 521 534
6937 17 513 514 515 530
6938 17 513 514 521 534
6939 17 2587 2586 2602 2601
6940 17 2584 2586 2587 2588
6941 17 2584 2586 2602 2601
6942 17 2602 2586 2587 2603
6943 17 2584 2586 2587 2603
6944 8 2596 2595 2594 2599
6945 16 2596 2595 2609 2610
6946 16 2596 2595 2609 2597
6947 16 2594 2595 2609 2610
6948 16 2594 2595 2609 2597
6949 12 2599 2594 2595 2609
6950 17 2595 2594 2599 2597
6951 17 2595 2594 2599 2600
6952 8 2593 2594 2595 2596
6953 12 2593 2594 2595 2609
6954 17 2593 2594 2599 2597
6955 17 2593 2594 2599 2600
6956 17 2599 2594 2593 2606
6957 17 2595 2594 2593 2606
6958 11 2597 2609 2610 2611
6959 11 2597 2609 2610 2629
6960 11 2595 2609 2610 2611
6961 11 2595 2609 2610 2629
6962 16 2595 2609 2597 2598
6963 16 2595 2609 2597 2599
6964 12 2600 2599 2597 2609
6965 8 2594 2599 2597 2598
6966 12 2594 2599 2597 2609
6967 17 2597 2599 2600 2607
6968 17 2594 2599 2600 2607
6969 16 2599 2597 2609 2610
6970 8 2598 2597 2599 2600
6971 16 2598 2597 2609 2610
6972 17 2592 2593 2594 2595
6973 17 2592 2593 2594 2599
6974 17 2594 2593 2592 2605
6975 17 2591 2600 2599 2597
6976 17 2591 2600 2599 2594
6977 17 514 521 519 517
6978 17 514 521 519 520
6979 17 2593 2592 2591 2600
6980 17 2591 2592 2593 2594
6981 17 2605 2592 2593 2606
6982 17 2591 2592 2593 2606
6983 9 521 519 520 533
6984 17 520 519 521 534
6985 9 517 519 520 533
6986 17 517 519 521 534
6987 17 2391 2400 2399 2397
6988 17 2391 2400 2399 2394
6989 16 2399 2397 2409 2410
6990 8 2398 2397 2399 2400
6991 16 2398 2397 2409 2410
6992 17 2588 2587 2586 2602
6993 17 2586 2587 2588 2589
6994 17 2603 2587 2588 2604
6995 17 2586 2587 2588 2604
6996 17 2592 2591 2600 2599
6997 17 2590 2591 2592 2593
6998 17 2590 2591 2600 2599
6999 17 2600 2591 2592 2605
7000 17 2592 2591 2600 2607
7001 17 2590 2591 2592 2605
7002 17 2590 2591 2600 2607
7003 17 2587 2588 2589 2590
7004 17 2587 2588 2589 2601
7005 17 2589 2588 2587 2603
7006 17 2590 2589 2601 2602
7007 10 2588 2589 2590 2591
7008 17 2588 2589 2601 2602
7009 17 2601 2589 2588 2604
7010 17 2590 2589 2588 2604
7011 17 2590 2589 2601 2608
7012 17 2588 2589 2601 2608
7013 17 2411 2410 2423 2422
7014 17 2409 2410 2411 2412
7015 17 2409 2410 2423 2422
7016 17 2423 2410 2411 2424
7017 17 2411 2410 2423 2431
7018 17 2409 2410 2411 2424
7019 17 2409 2410 2423 2431
7020 10 2591 2590 2589 2601
7021 10 2589 2590 2591 2592
7022 10 2589 2590 2591 2600
7023 17 2410 2423 2422 2413
7024 17 2410 2423 2422 2430
7025 17 2412 2411 2410 2423
7026 17 2410 2411 2412 2413
7027 17 2424 2411 2412 2425
7028 17 2410 2411 2412 2425
7029 17 2430 2422 2423 2431
7030 17 2413 2422 2423 2431
7031 17 1113 1126 1125 1116
7032 17 1113 1126 1125 1133
7033 17 1231 1223 1224 1232
7034 17 1221 1223 1224 1232
7035 17 1218 1224 1223 1221
7036 17 1218 1224 1223 1231
7037 17 2414 2413 2422 2423
7038 10 2412 2413 2414 2415
7039 17 2412 2413 2422 2423
7040 17 2422 2413 2412 2425
7041 17 2414 2413 2412 2425
7042 17 2414 2413 2422 2430
7043 17 2412 2413 2422 2430
7044 17 2411 2412 2413 2414
7045 17 2411 2412 2413 2422
7046 17 2413 2412 2411 2424
7047 10 2415 2414 2413 2422
7048 10 2413 2414 2415 2416
7049 10 2413 2414 2415 2421
7050 17 2417 2416 2415 2421
7051 17 2415 2416 2417 2418
7052 17 2426 2416 2417 2427
7053 17 2415 2416 2417 2427
7054 17 2416 2415 2421 2420
7055 17 2414 2415 2416 2417
7056 17 2414 2415 2421 2420
7057 17 2421 2415 2416 2426
7058 17 2416 2415 2421 2429
7059 17 2414 2415 2416 2426
7060 17 2414 2415 2421 2429
7061 17 2416 2417 2418 2419
7062 17 2416 2417 2418 2420
7063 17 2418 2417 2416 2426
7064 11 1100 1112 1113 1114
7065 11 1100 1112 1113 1126
7066 11 1098 1112 1113 1114
7067 11 1098 1112 1113 1126
7068 16 1098 1112 1100 1101
7069 16 1098 1112 1100 1102
7070 17 66 67 68 69
7071 17 66 67 68 70
7072 17 68 67 66 81
7073 9 72 70 71 84
7074 17 71 70 72 85
7075 9 68 70 71 84
7076 17 68 70 72 85
7077 12 1102 1097 1098 1112
7078 17 1098 1097 1102 1100
7079 17 1098 1097 1102 1103
7080 8 1096 1097 1098 1099
7081 12 1096 1097 1098 1112
7082 17 1096 1097 1102 1100
7083 17 1096 1097 1102 1103
7084 17 1102 1097 1096 1109
7085 17 1098 1097 1096 1109
7086 17 1096 1095 1094 1103
7087 17 1094 1095 1096 1097
7088 17 1108 1095 1096 1109
7089 17 1094 1095 1096 1109
7090 17 1095 1096 1097 1098
7091 17 1095 1096 1097 1102
7092 17 1097 1096 1095 1108
7093 17 2516 2517 2518 2519
7094 17 2516 2517 2518 2520
7095 17 2518 2517 2516 2526
7096 10 2515 2514 2513 2522
7097 10 2513 2514 2515 2516
7098 10 2513 2514 2515 2521
7099 17 2516 2515 2521 2520
7100 17 2514 2515 2516 2517
7101 17 2514 2515 2521 2520
7102 17 2521 2515 2516 2526
7103 17 2516 2515 2521 2529
7104 17 2514 2515 2516 2526
7105 17 2514 2515 2521 2529
7106 8 1099 1098 1097 1102
7107 16 1099 1098 1112 1113
7108 16 1099 1098 1112 1100
7109 16 1097 1098 1112 1113
7110 16 1097 1098 1112 1100
7111 17 65 72 70 68
7112 17 65 72 70 71
7113 17 66 65 72 70
7114 17 64 65 66 67
7115 17 64 65 72 70
7116 2 72 65 64 79
7117 2 72 65 64 80
7118 17 72 65 66 81
7119 2 66 65 64 79
7120 2 66 65 64 80
7121 17 66 65 72 85
7122 17 64 65 66 81
7123 17 64 65 72 85
7124 8 58 59 60 61
7125 12 58 59 60 62
7126 17 73 59 58 75
7127 17 60 59 58 75
7128 17 60 59 73 86
7129 17 58 59 73 86
7130 17 56 58 59 60
7131 17 56 58 59 73
7132 17 67 66 65 72
7133 17 65 66 67 68
7134 17 81 66 67 82
7135 17 65 66 67 82
7136 12 62 60 59 73
7137 8 61 60 59 73
7138 16 61 60 62 63
7139 16 59 60 62 63
7140 15 61 60 62 76
7141 16 61 60 62 76
7142 16 59 60 62 76
7143 7 63 64 65 66
7144 7 63 64 65 72
7145 4 65 64 63 77
7146 4 65 64 63 78
7147 6 62 63 64 65
7148 4 78 63 64 79
7149 4 78 63 64 80
7150 4 77 63 64 79
7151 4 77 63 64 80
7152 1 64 63 62 76
7153 4 62 63 64 79
7154 4 62 63 64 80
7155 13 60 62 63 64
7156 5 60 62 63 64
7157 3 60 62 63 64
7158 1 76 62 63 77
7159 1 76 62 63 78
7160 2 60 62 63 77
7161 2 60 62 63 78
7162 17 2517 2516 2515 2521
7163 17 2515 2516 2517 2518
7164 17 2526 2516 2517 2527
7165 17 2515 2516 2517 2527
7166 17 2528 2520 2521 2529
7167 17 2518 2520 2521 2529
7168 17 2366 2365 2371 2370
7169 17 2364 2365 2366 2367
7170 17 2364 2365 2371 2370
7171 17 2371 2365 2366 2376
7172 17 2366 2365 2371 2379
7173 17 2364 2365 2366 2376
7174 17 2364 2365 2371 2379
7175 17 2530 2522 2523 2531
7176 17 2513 2522 2523 2531
7177 17 2514 2513 2522 2523
7178 10 2512 2513 2514 2515
7179 17 2512 2513 2522 2523
7180 17 2522 2513 2512 2525
7181 17 2514 2513 2512 2525
7182 17 2514 2513 2522 2530
7183 17 2512 2513 2522 2530
7184 17 2515 2521 2520 2518
7185 17 2515 2521 2520 2528
7186 17 516 515 514 521
7187 17 514 515 516 517
7188 17 530 515 516 531
7189 17 514 515 516 531
7190 8 2496 2495 2494 2499
7191 16 2496 2495 2509 2510
7192 16 2496 2495 2509 2497
7193 16 2494 2495 2509 2510
7194 16 2494 2495 2509 2497
7195 17 518 517 519 520
7196 17 518 517 519 521
7197 17 516 517 519 520
7198 17 516 517 519 521
7199 17 519 517 516 531
7200 9 519 517 518 532
7201 17 518 517 516 531
7202 9 516 517 518 532
7203 17 2510 2523 2522 2513
7204 17 2510 2523 2522 2530
7205 17 515 516 517 518
7206 17 515 516 517 519
7207 17 517 516 515 530
7208 17 2387 2388 2389 2390
7209 17 2387 2388 2389 2401
7210 17 2389 2388 2387 2403
7211 17 2390 2389 2401 2402
7212 10 2388 2389 2390 2391
7213 17 2388 2389 2401 2402
7214 17 2401 2389 2388 2404
7215 17 2390 2389 2388 2404
7216 17 2390 2389 2401 2408
7217 17 2388 2389 2401 2408
7218 17 2378 2370 2371 2379
7219 17 2368 2370 2371 2379
7220 17 2365 2371 2370 2368
7221 17 2365 2371 2370 2378
7222 17 2367 2366 2365 2371
7223 17 2365 2366 2367 2368
7224 17 2376 2366 2367 2377
7225 17 2365 2366 2367 2377
7226 17 2511 2512 2513 2514
7227 17 2511 2512 2513 2522
7228 17 2513 2512 2511 2524
7229 17 2388 2387 2386 2402
7230 17 2386 2387 2388 2389
7231 17 2403 2387 2388 2404
7232 17 2386 2387 2388 2404
7233 17 2387 2386 2402 2401
7234 17 2384 2386 2387 2388
7235 17 2384 2386 2402 2401
7236 17 2402 2386 2387 2403
7237 17 2384 2386 2387 2403
7238 8 2385 2384 2386 2387
7239 8 2385 2384 2386 2402
7240 12 2369 2384 2386 2387
7241 12 2369 2384 2386 2402
7242 11 2497 2509 2510 2511
7243 11 2497 2509 2510 2523
7244 11 2495 2509 2510 2511
7245 11 2495 2509 2510 2523
7246 16 2495 2509 2497 2498
7247 16 2495 2509 2497 2499
7248 17 2511 2510 2523 2522
7249 17 2509 2510 2511 2512
7250 17 2509 2510 2523 2522
7251 17 2523 2510 2511 2524
7252 17 2511 2510 2523 2531
7253 17 2509 2510 2511 2524
7254 17 2509 2510 2523 2531
7255 17 2512 2511 2510 2523
7256 17 2510 2511 2512 2513
7257 17 2524 2511 2512 2525
7258 17 2510 2511 2512 2525
7259 11 2370 2368 2369 2383
7260 11 2370 2368 2369 2384
7261 17 2369 2368 2370 2371
7262 11 2367 2368 2369 2383
7263 11 2367 2368 2369 2384
7264 17 2367 2368 2370 2371
7265 17 2370 2368 2367 2377
7266 17 2369 2368 2367 2377
7267 17 2369 2368 2370 2378
7268 17 2367 2368 2370 2378
7269 17 2366 2367 2368 2369
7270 17 2366 2367 2368 2370
7271 17 2368 2367 2366 2376
7272 16 2499 2497 2509 2510
7273 8 2498 2497 2499 2500
7274 16 2498 2497 2509 2510
7275 16 2384 2369 2383 2402
7276 16 2383 2369 2384 2385
7277 16 2383 2369 2384 2386
7278 16 2368 2369 2383 2382
7279 16 2368 2369 2383 2402
7280 16 2368 2369 2384 2385
7281 16 2368 2369 2384 2386
7282 17 2386 2402 2401 2389
7283 17 2383 2402 2401 2389
7284 17 2383 2402 2386 2384
7285 17 2383 2402 2386 2387
7286 17 2386 2402 2401 2408
7287 17 2383 2402 2401 2408
7288 8 2382 2383 2402 2401
7289 8 2382 2383 2402 2386
7290 16 2382 2383 2369 2384
7291 12 2369 2383 2402 2401
7292 12 2369 2383 2402 2386
7293 17 2676 2682 2681 2679
7294 17 2676 2682 2681 2691
7295 16 1586 1571 1585 1604
7296 16 1585 1571 1586 1587
7297 16 1585 1571 1586 1588
7298 16 1570 1571 1585 1584
7299 16 1570 1571 1585 1604
7300 16 1570 1571 1586 1587
7301 16 1570 1571 1586 1588
7302 17 2672 2671 2684 2683
7303 17 2670 2671 2672 2673
7304 17 2670 2671 2684 2683
7305 17 2684 2671 2672 2685
7306 17 2672 2671 2684 2694
7307 17 2670 2671 2672 2685
7308 17 2670 2671 2684 2694
7309 17 2673 2672 2671 2684
7310 17 2671 2672 2673 2674
7311 17 2685 2672 2673 2686
7312 17 2671 2672 2673 2686
7313 17 2466 2467 2468 2469
7314 17 2466 2467 2468 2470
7315 17 2468 2467 2466 2476
7316 11 2257 2255 2256 2272
7317 11 2257 2255 2256 2273
7318 17 2256 2255 2257 2258
7319 11 2254 2255 2256 2272
7320 11 2254 2255 2256 2273
7321 17 2254 2255 2257 2258
7322 17 2257 2255 2254 2266
7323 17 2256 2255 2254 2266
7324 17 2256 2255 2257 2267
7325 17 2254 2255 2257 2267
7326 8 2274 2273 2275 2276
7327 8 2274 2273 2275 2291
7328 12 2256 2273 2275 2276
7329 12 2256 2273 2275 2291
7330 17 2277 2276 2275 2291
7331 17 2275 2276 2277 2278
7332 17 2292 2276 2277 2293
7333 17 2275 2276 2277 2293
7334 16 2273 2256 2272 2291
7335 16 2272 2256 2273 2274
7336 16 2272 2256 2273 2275
7337 16 2255 2256 2272 2271
7338 16 2255 2256 2272 2291
7339 16 2255 2256 2273 2274
7340 16 2255 2256 2273 2275
7341 17 2276 2275 2291 2290
7342 17 2273 2275 2276 2277
7343 17 2273 2275 2291 2290
7344 17 2291 2275 2276 2292
7345 17 2273 2275 2276 2292
7346 17 2275 2291 2290 2278
7347 17 2272 2291 2290 2278
7348 17 2272 2291 2275 2273
7349 17 2272 2291 2275 2276
7350 17 2275 2291 2290 2297
7351 17 2272 2291 2290 2297
7352 8 2271 2272 2291 2290
7353 8 2271 2272 2291 2275
7354 16 2271 2272 2256 2273
7355 12 2256 2272 2291 2290
7356 12 2256 2272 2291 2275
7357 11 2447 2459 2460 2461
7358 11 2447 2459 2460 2473
7359 11 2445 2459 2460 2461
7360 11 2445 2459 2460 2473
7361 16 2445 2459 2447 2448
7362 16 2445 2459 2447 2449
7363 17 2461 2460 2473 2472
7364 17 2459 2460 2461 2462
7365 17 2459 2460 2473 2472
7366 17 2473 2460 2461 2474
7367 17 2461 2460 2473 2481
7368 17 2459 2460 2461 2474
7369 17 2459 2460 2473 2481
7370 17 2460 2473 2472 2463
7371 17 2460 2473 2472 2480
7372 17 2462 2461 2460 2473
7373 17 2460 2461 2462 2463
7374 17 2474 2461 2462 2475
7375 17 2460 2461 2462 2475
7376 17 2461 2462 2463 2464
7377 17 2461 2462 2463 2472
7378 17 2463 2462 2461 2474
7379 16 2449 2447 2459 2460
7380 8 2448 2447 2449 2450
7381 16 2448 2447 2459 2460
7382 17 2672 2673 2674 2675
7383 17 2672 2673 2674 2683
7384 17 2674 2673 2672 2685
7385 17 2480 2472 2473 2481
7386 17 2463 2472 2473 2481
7387 17 2464 2463 2472 2473
7388 10 2462 2463 2464 2465
7389 17 2462 2463 2472 2473
7390 17 2472 2463 2462 2475
7391 17 2464 2463 2462 2475
7392 17 2464 2463 2472 2480
7393 17 2462 2463 2472 2480
7394 17 2467 2466 2465 2471
7395 17 2465 2466 2467 2468
7396 17 2476 2466 2467 2477
7397 17 2465 2466 2467 2477
7398 10 2465 2464 2463 2472
7399 10 2463 2464 2465 2466
7400 10 2463 2464 2465 2471
7401 12 2450 2449 2447 2459
7402 8 2444 2449 2447 2448
7403 12 2444 2449 2447 2459
7404 17 2447 2449 2450 2457
7405 17 2444 2449 2450 2457
7406 17 2276 2277 2278 2279
7407 17 2276 2277 2278 2290
7408 17 2278 2277 2276 2292
7409 17 2279 2278 2290 2291
7410 10 2277 2278 2279 2280
7411 17 2277 2278 2290 2291
7412 17 2290 2278 2277 2293
7413 17 2279 2278 2277 2293
7414 17 2279 2278 2290 2297
7415 17 2277 2278 2290 2297
7416 17 2466 2465 2471 2470
7417 17 2464 2465 2466 2467
7418 17 2464 2465 2471 2470
7419 17 2471 2465 2466 2476
7420 17 2466 2465 2471 2479
7421 17 2464 2465 2466 2476
7422 17 2464 2465 2471 2479
7423 17 2675 2674 2683 2684
7424 10 2673 2674 2675 2676
7425 17 2673 2674 2683 2684
7426 17 2683 2674 2673 2686
7427 17 2675 2674 2673 2686
7428 17 2675 2674 2683 2693
7429 17 2673 2674 2683 2693
7430 10 2676 2675 2674 2683
7431 10 2674 2675 2676 2677
7432 10 2674 2675 2676 2682
7433 10 2280 2279 2278 2290
7434 10 2278 2279 2280 2281
7435 10 2278 2279 2280 2289
7436 17 2280 2289 2288 2286
7437 17 2280 2289 2288 2283
7438 17 2677 2676 2682 2681
7439 17 2675 2676 2677 2678
7440 17 2675 2676 2682 2681
7441 17 2682 2676 2677 2687
7442 17 2677 2676 2682 2692
7443 17 2675 2676 2677 2687
7444 17 2675 2676 2682 2692
7445 17 2281 2280 2289 2288
7446 17 2279 2280 2281 2282
7447 17 2279 2280 2289 2288
7448 17 2289 2280 2281 2294
7449 17 2281 2280 2289 2296
7450 17 2279 2280 2281 2294
7451 17 2279 2280 2289 2296
7452 17 2693 2683 2684 2694
7453 17 2674 2683 2684 2694
7454 17 2671 2684 2683 2674
7455 17 2671 2684 2683 2693
7456 17 2441 2450 2449 2447
7457 17 2441 2450 2449 2444
7458 17 2437 2436 2452 2451
7459 17 2434 2436 2437 2438
7460 17 2434 2436 2452 2451
7461 17 2452 2436 2437 2453
7462 17 2434 2436 2437 2453
7463 16 1636 1621 1635 1654
7464 16 1635 1621 1636 1637
7465 16 1635 1621 1636 1638
7466 16 1620 1621 1635 1634
7467 16 1620 1621 1635 1654
7468 16 1620 1621 1636 1637
7469 16 1620 1621 1636 1638
7470 17 2415 2421 2420 2418
7471 17 2415 2421 2420 2428
7472 17 2282 2281 2280 2289
7473 17 2280 2281 2282 2283
7474 17 2294 2281 2282 2295
7475 17 2280 2281 2282 2295
7476 8 2435 2434 2436 2437
7477 8 2435 2434 2436 2452
7478 12 2419 2434 2436 2437
7479 12 2419 2434 2436 2452
7480 17 1630 1622 1623 1631
7481 17 1620 1622 1623 1631
7482 11 2420 2418 2419 2433
7483 11 2420 2418 2419 2434
7484 17 2419 2418 2420 2421
7485 11 2417 2418 2419 2433
7486 11 2417 2418 2419 2434
7487 17 2417 2418 2420 2421
7488 17 2420 2418 2417 2427
7489 17 2419 2418 2417 2427
7490 17 2419 2418 2420 2428
7491 17 2417 2418 2420 2428
7492 17 1639 1638 1654 1653
7493 17 1636 1638 1639 1640
7494 17 1636 1638 1654 1653
7495 17 1654 1638 1639 1655
7496 17 1636 1638 1639 1655
7497 17 1639 1640 1641 1642
7498 17 1639 1640 1641 1653
7499 17 1641 1640 1639 1655
7500 17 2678 2677 2676 2682
7501 17 2676 2677 2678 2679
7502 17 2687 2677 2678 2688
7503 17 2676 2677 2678 2688
7504 17 2677 2678 2679 2680
7505 17 2677 2678 2679 2681
7506 17 2679 2678 2677 2687
7507 8 1637 1636 1638 1639
7508 8 1637 1636 1638 1654
7509 12 1621 1636 1638 1639
7510 12 1621 1636 1638 1654
7511 17 1640 1639 1638 1654
7512 17 1638 1639 1640 1641
7513 17 1655 1639 1640 1656
7514 17 1638 1639 1640 1656
7515 17 2428 2420 2421 2429
7516 17 2418 2420 2421 2429
7517 17 2436 2452 2451 2439
7518 17 2433 2452 2451 2439
7519 17 2433 2452 2436 2434
7520 17 2433 2452 2436 2437
7521 17 2436 2452 2451 2458
7522 17 2433 2452 2451 2458
7523 16 2434 2419 2433 2452
7524 16 2433 2419 2434 2435
7525 16 2433 2419 2434 2436
7526 16 2418 2419 2433 2432
7527 16 2418 2419 2433 2452
7528 16 2418 2419 2434 2435
7529 16 2418 2419 2434 2436
7530 8 2432 2433 2452 2451
7531 8 2432 2433 2452 2436
7532 16 2432 2433 2419 2434
7533 12 2419 2433 2452 2451
7534 12 2419 2433 2452 2436
7535 16 89 57 88 107
7536 16 88 57 89 90
7537 16 88 57 89 91
7538 16 56 57 88 87
7539 16 56 57 88 107
7540 16 56 57 89 90
7541 16 56 57 89 91
7542 8 90 89 91 92
7543 8 90 89 91 107
7544 12 57 89 91 92
7545 12 57 89 91 107
7546 17 92 91 107 106
7547 17 89 91 92 93
7548 17 89 91 107 106
7549 17 107 91 92 108
7550 17 89 91 92 108
7551 17 91 107 106 94
7552 17 88 107 106 94
7553 17 88 107 91 89
7554 17 88 107 91 92
7555 17 91 107 106 113
7556 17 88 107 106 113
7557 17 93 92 91 107
7558 17 91 92 93 94
7559 17 108 92 93 109
7560 17 91 92 93 109
7561 17 2248 2247 2260 2259
7562 17 2246 2247 2248 2249
7563 17 2246 2247 2260 2259
7564 14 2260 2247 2246 2261
7565 14 2260 2247 2246 2262
7566 17 2260 2247 2248 2263
7567 14 2248 2247 2246 2261
7568 14 2248 2247 2246 2262
7569 17 2248 2247 2260 2270
7570 17 2246 2247 2248 2263
7571 17 2246 2247 2260 2270
7572 17 2253 2254 2255 2256
7573 17 2253 2254 2255 2257
7574 17 2255 2254 2253 2265
7575 17 2249 2248 2247 2260
7576 17 2247 2248 2249 2250
7577 17 2263 2248 2249 2264
7578 17 2247 2248 2249 2264
7579 17 2248 2249 2250 2251
7580 17 2248 2249 2250 2259
7581 17 2250 2249 2248 2263
7582 17 2254 2253 2252 2258
7583 17 2252 2253 2254 2255
7584 17 2265 2253 2254 2266
7585 17 2252 2253 2254 2266
7586 17 2267 2257 2258 2268
7587 17 2255 2257 2258 2268
7588 8 2482 2483 2502 2501
7589 8 2482 2483 2502 2486
7590 16 2482 2483 2469 2484
7591 12 2469 2483 2502 2501
7592 12 2469 2483 2502 2486
7593 8 1587 1586 1588 1589
7594 8 1587 1586 1588 1604
7595 12 1571 1586 1588 1589
7596 12 1571 1586 1588 1604
7597 17 2269 2259 2260 2270
7598 17 2250 2259 2260 2270
7599 17 2251 2250 2259 2260
7600 10 2249 2250 2251 2252
7601 17 2249 2250 2259 2260
7602 17 2259 2250 2249 2264
7603 17 2251 2250 2249 2264
7604 17 2251 2250 2259 2269
7605 17 2249 2250 2259 2269
7606 17 1589 1588 1604 1603
7607 17 1586 1588 1589 1590
7608 17 1586 1588 1604 1603
7609 17 1604 1588 1589 1605
7610 17 1586 1588 1589 1605
7611 17 92 93 94 95
7612 17 92 93 94 106
7613 17 94 93 92 108
7614 11 2470 2468 2469 2483
7615 11 2470 2468 2469 2484
7616 17 2469 2468 2470 2471
7617 11 2467 2468 2469 2483
7618 11 2467 2468 2469 2484
7619 17 2467 2468 2470 2471
7620 17 2470 2468 2467 2477
7621 17 2469 2468 2467 2477
7622 17 2469 2468 2470 2478
7623 17 2467 2468 2470 2478
7624 10 96 95 94 106
7625 10 94 95 96 97
7626 10 94 95 96 105
7627 17 95 94 106 107
7628 10 93 94 95 96
7629 17 93 94 106 107
7630 17 106 94 93 109
7631 17 95 94 93 109
7632 17 95 94 106 113
7633 17 93 94 106 113
7634 17 2253 2252 2258 2257
7635 17 2251 2252 2253 2254
7636 17 2251 2252 2258 2257
7637 17 2258 2252 2253 2265
7638 17 2253 2252 2258 2268
7639 17 2251 2252 2253 2265
7640 17 2251 2252 2258 2268
7641 10 2252 2251 2250 2259
7642 10 2250 2251 2252 2253
7643 10 2250 2251 2252 2258
7644 17 2252 2258 2257 2255
7645 17 2252 2258 2257 2267
7646 17 2478 2470 2471 2479
7647 17 2468 2470 2471 2479
7648 17 2465 2471 2470 2468
7649 17 2465 2471 2470 2478
7650 17 1589 1590 1591 1592
7651 17 1589 1590 1591 1603
7652 17 1591 1590 1589 1605
7653 17 1590 1589 1588 1604
7654 17 1588 1589 1590 1591
7655 17 1605 1589 1590 1606
7656 17 1588 1589 1590 1606

Impropers

1 1 1380 1393 1392 1399
2 1 1374 1377 1393 1392
3 1 1374 1375 1358 1357
4 1 1375 1378 1377 1393
5 1 1377 1379 1378 1394
6 2 1377 1358 1375 1376
7 2 1393 1358 1374 1373
8 2 1688 1671 1686 1687
9 2 1704 1671 1685 1684
10 1 1685 1686 1671 1670
11 1 1355 1357 1356 1368
12 1 1378 1380 1379 1395
13 1 1685 1688 1704 1703
14 1 1379 1392 1380 1381
15 1 1691 1704 1703 1710
16 1 1383 1391 1382 1381
17 1 1356 1359 1357 1358
18 1 1354 1359 1360 1370
19 1 1354 1356 1355 1367
20 1 1668 1670 1669 1679
21 1 1669 1672 1670 1671
22 1 1667 1672 1673 1681
23 1 1562 1564 1563 1576
24 1 1667 1669 1668 1678
25 1 1668 1673 1667 1666
26 1 1670 1673 1672 1680
27 1 1664 1674 1665 1666
28 1 1662 1674 1675 1683
29 1 1663 1665 1664 1677
30 1 1663 1675 1662 1661
31 1 1665 1675 1674 1682
32 2 1651 1661 1649 1650
33 2 1646 1661 1647 1648
34 1 1441 1454 1453 1460
35 1 1436 1439 1438 1454
36 1 1435 1438 1454 1453
37 1 1440 1453 1441 1442
38 1 1444 1452 1443 1442
39 1 1443 1451 1452 1459
40 1 1438 1440 1439 1455
41 1 2016 2018 2017 2027
42 1 2017 2019 2018 2028
43 1 1662 1664 1663 1676
44 1 1439 1441 1440 1456
45 1 1435 1436 1404 1403
46 2 2037 2020 2035 2036
47 2 2053 2020 2034 2033
48 2 2211 2221 2209 2210
49 2 2206 2221 2207 2208
50 1 2040 2053 2052 2059
51 1 2039 2052 2040 2041
52 1 2209 2206 2211 2212
53 1 2204 2206 2205 2218
54 1 2038 2040 2039 2055
55 1 1937 1939 1938 1954
56 1 2207 2205 2206 2211
57 1 2203 2205 2204 2217
58 1 2043 2051 2042 2041
59 1 2042 2050 2051 2058
60 1 2046 2044 2045 2050
61 1 2042 2044 2043 2056
62 1 2034 2037 2053 2052
63 1 2037 2039 2038 2054
64 1 1447 1445 1446 1451
65 1 1443 1445 1444 1457
66 1 2048 2045 2050 2051
67 1 2043 2045 2044 2057
68 1 2034 2035 2020 2019
69 1 2035 2038 2037 2053
70 1 1778 1780 1779 1789
71 1 1779 1781 1780 1790
72 1 2046 2048 2060 2061
73 2 2050 2060 2048 2049
74 2 2045 2060 2046 2047
75 1 302 299 304 305
76 1 297 299 298 311
77 1 1774 1786 1773 1772
78 1 1776 1786 1785 1795
79 1 1775 1785 1776 1777
80 1 1773 1785 1786 1796
81 1 300 298 299 304
82 1 296 298 297 310
83 1 2062 2074 2061 2060
84 1 2064 2074 2073 2081
85 1 2061 2063 2062 2075
86 2 304 314 302 303
87 2 299 314 300 301
88 1 316 328 315 314
89 1 318 328 327 335
90 1 1774 1776 1775 1788
91 1 1513 1525 1512 1511
92 1 1515 1525 1524 1532
93 1 2062 2064 2063 2076
94 2 1501 1511 1499 1500
95 2 1496 1511 1497 1498
96 1 1773 1775 1774 1787
97 1 1690 1703 1691 1692
98 1 1689 1691 1690 1706
99 1 2173 2175 2174 2189
100 1 991 1004 992 993
101 1 2172 2174 2173 2188
102 1 2171 2173 2172 2179
103 1 990 992 991 1007
104 1 989 991 990 1006
105 1 2167 2170 2169 2183
106 1 998 996 997 1002
107 1 994 996 995 1008
108 2 1202 1212 1200 1201
109 2 1197 1212 1198 1199
110 1 640 642 641 657
111 1 638 641 640 656
112 1 2174 2177 2175 2176
113 1 2172 2177 2179 2192
114 1 2175 2179 2177 2178
115 1 1519 1522 1520 1521
116 1 1517 1522 1523 1531
117 1 992 1005 1004 1011
118 1 987 990 989 1005
119 1 986 989 1005 1004
120 1 986 987 955 954
121 1 642 655 643 644
122 1 641 643 642 658
123 1 643 656 655 662
124 1 962 964 963 970
125 1 963 965 964 979
126 1 964 966 965 980
127 1 637 640 656 655
128 1 965 968 966 967
129 1 963 968 970 983
130 1 2203 2211 2212 2219
131 1 1938 1940 1939 1955
132 1 2207 2209 2221 2222
133 1 966 970 968 969
134 1 958 961 960 974
135 1 2204 2212 2203 2202
136 1 1946 1944 1945 1950
137 1 1942 1944 1943 1956
138 1 2199 2201 2200 2216
139 1 2198 2200 2199 2215
140 1 2200 2213 2201 2202
141 1 2196 2199 2198 2214
142 1 1514 1524 1515 1516
143 1 1512 1524 1525 1533
144 1 1518 1523 1517 1516
145 1 1520 1523 1522 1530
146 1 2201 2214 2213 2220
147 1 2195 2198 2214 2213
148 1 2195 2196 2164 2163
149 1 1512 1514 1513 1526
150 2 2198 2164 2196 2197
151 2 2214 2164 2195 2194
152 1 2161 2163 2162 2181
153 1 2167 2165 2166 2180
154 1 2162 2165 2163 2164
155 1 1513 1515 1514 1527
156 2 2166 2169 2167 2168
157 1 1200 1197 1202 1203
158 1 1195 1197 1196 1209
159 1 1198 1196 1197 1202
160 1 1194 1196 1195 1208
161 1 2161 2166 2180 2193
162 1 2163 2166 2165 2182
163 1 540 542 541 557
164 1 2162 2180 2161 2160
165 1 1939 1952 1940 1941
166 1 1213 1215 1214 1227
167 1 1214 1216 1215 1228
168 1 488 490 502 503
169 1 509 507 508 522
170 1 504 507 505 506
171 1 503 508 522 535
172 1 505 508 507 524
173 1 504 522 503 502
174 2 508 511 509 510
175 1 509 512 511 525
176 1 2565 2567 2566 2576
177 1 503 505 504 523
178 2 2586 2569 2584 2585
179 2 2602 2569 2583 2582
180 2 492 502 490 491
181 2 487 502 488 489
182 1 484 492 493 500
183 1 2342 2350 2341 2340
184 1 490 487 492 493
185 1 485 487 486 499
186 1 485 493 484 483
187 1 2339 2352 2351 2358
188 1 488 486 487 492
189 1 484 486 485 498
190 1 2338 2351 2339 2340
191 1 637 638 623 622
192 2 640 623 638 639
193 2 656 623 637 636
194 1 620 622 621 631
195 1 621 624 622 623
196 1 619 624 625 633
197 1 619 621 620 630
198 1 620 625 619 618
199 1 622 625 624 632
200 1 615 617 616 629
201 1 616 626 617 618
202 1 614 626 627 635
203 1 172 175 173 174
204 1 170 175 176 184
205 1 171 176 170 169
206 1 173 176 175 183
207 1 2284 2282 2283 2288
208 1 2280 2282 2281 2294
209 1 194 207 206 213
210 1 188 191 207 206
211 1 189 192 191 207
212 1 614 616 615 628
213 1 615 627 614 613
214 1 617 627 626 634
215 2 191 174 189 190
216 2 207 174 188 187
217 1 188 189 174 173
218 1 171 173 172 182
219 1 170 172 171 181
220 1 41 38 43 44
221 1 36 38 37 50
222 2 43 53 41 42
223 2 38 53 39 40
224 1 35 43 44 51
225 1 39 37 38 43
226 1 35 37 36 49
227 1 2516 2518 2517 2527
228 1 2533 2534 2519 2518
229 2 2536 2519 2534 2535
230 2 2552 2519 2533 2532
231 1 2533 2536 2552 2551
232 1 2534 2537 2536 2552
233 1 39 41 53 54
234 1 2539 2552 2551 2558
235 1 36 44 35 34
236 1 344 357 356 363
237 1 55 73 54 53
238 1 541 543 542 558
239 1 538 541 540 556
240 2 540 506 538 539
241 2 556 506 537 536
242 1 2536 2538 2537 2553
243 1 2341 2349 2350 2357
244 1 2345 2347 2359 2360
245 1 537 538 506 505
246 1 537 540 556 555
247 1 2360 2362 2361 2374
248 1 2361 2363 2362 2375
249 1 2362 2372 2363 2364
250 1 2360 2372 2373 2381
251 1 2538 2551 2539 2540
252 1 2361 2373 2360 2359
253 1 2363 2373 2372 2380
254 1 543 556 555 562
255 1 542 555 543 544
256 2 2349 2359 2347 2348
257 2 2344 2359 2345 2346
258 1 2537 2539 2538 2554
259 1 2542 2550 2541 2540
260 1 2541 2549 2550 2557
261 1 2347 2344 2349 2350
262 1 2342 2344 2343 2356
263 1 2547 2544 2549 2550
264 1 2542 2544 2543 2556
265 1 2247 2261 2246 2262
266 1 2545 2547 2559 2560
267 2 2549 2559 2547 2548
268 2 2544 2559 2545 2546
269 1 2566 2568 2567 2577
270 1 1568 1573 1567 1566
271 1 1570 1573 1572 1580
272 1 1569 1572 1570 1571
273 1 1567 1572 1573 1581
274 1 1781 1791 1782 1792
275 1 1563 1565 1564 1577
276 1 2562 2572 2563 2564
277 1 2560 2572 2573 2581
278 1 2567 2570 2568 2569
279 1 2565 2570 2571 2579
280 1 2566 2571 2565 2564
281 1 2568 2571 2570 2578
282 1 1564 1574 1565 1566
283 1 1562 1574 1575 1583
284 1 1567 1569 1568 1578
285 1 1563 1575 1562 1561
286 1 1565 1575 1574 1582
287 1 2561 2563 2562 2575
288 1 2560 2562 2561 2574
289 1 2299 2301 2300 2319
290 2 2336 2302 2334 2335
291 2 2352 2302 2333 2332
292 1 2305 2303 2304 2318
293 1 2300 2303 2301 2302
294 1 1568 1570 1569 1579
295 1 2284 2286 2298 2299
296 2 2288 2298 2286 2287
297 2 2283 2298 2284 2285
298 1 2280 2288 2289 2296
299 1 2299 2304 2318 2331
300 1 2301 2304 2303 2320
301 1 2333 2334 2302 2301
302 1 2561 2573 2560 2559
303 1 2563 2573 2572 2580
304 2 2304 2307 2305 2306
305 1 2286 2283 2288 2289
306 1 2281 2283 2282 2295
307 1 2434 2437 2436 2452
308 1 2436 2438 2437 2453
309 1 2300 2318 2299 2298
310 1 2437 2439 2438 2454
311 1 191 193 192 208
312 1 193 206 194 195
313 1 192 194 193 209
314 1 216 228 215 214
315 1 218 228 227 235
316 1 197 205 196 195
317 1 200 202 214 215
318 1 196 204 205 212
319 2 204 214 202 203
320 2 199 214 200 201
321 1 202 199 204 205
322 1 197 199 198 211
323 1 200 198 199 204
324 1 196 198 197 210
325 1 321 326 320 319
326 1 323 326 325 333
327 1 320 322 321 331
328 2 341 324 339 340
329 2 357 324 338 337
330 1 321 323 322 332
331 1 322 325 323 324
332 1 320 325 326 334
333 1 317 327 318 319
334 1 315 327 328 336
335 1 316 318 317 330
336 1 54 56 55 74
337 1 296 304 305 312
338 1 297 305 296 295
339 1 300 302 314 315
340 1 315 317 316 329
341 1 1780 1783 1781 1782
342 1 1778 1783 1784 1794
343 1 1779 1784 1778 1777
344 1 1781 1784 1783 1793
345 1 100 98 99 104
346 1 96 98 97 110
347 1 97 105 96 95
348 1 100 102 114 115
349 1 96 104 105 112
350 1 102 99 104 105
351 1 97 99 98 111
352 2 104 114 102 103
353 2 99 114 100 101
354 1 116 128 115 114
355 1 118 128 127 135
356 1 2248 2260 2247 2246
357 1 2250 2260 2259 2269
358 2 1551 1561 1549 1550
359 2 1546 1561 1547 1548
360 1 1547 1549 1561 1562
361 1 1539 1541 1540 1556
362 1 1540 1553 1541 1542
363 1 1541 1554 1553 1560
364 1 2084 2085 2070 2069
365 1 1549 1546 1551 1552
366 1 1544 1546 1545 1558
367 1 1547 1545 1546 1551
368 1 1543 1545 1544 1557
369 1 1543 1551 1552 1559
370 1 1544 1552 1543 1542
371 1 2084 2087 2103 2102
372 1 828 832 830 831
373 1 827 830 828 829
374 1 825 830 832 845
375 1 1538 1540 1539 1555
376 1 824 826 825 832
377 1 2090 2103 2102 2109
378 1 2089 2102 2090 2091
379 2 2087 2070 2085 2086
380 2 2103 2070 2084 2083
381 1 825 827 826 841
382 1 1382 1390 1391 1398
383 1 826 828 827 842
384 1 2018 2021 2019 2020
385 1 2016 2021 2022 2030
386 1 1386 1388 1400 1401
387 2 1438 1404 1436 1437
388 2 1454 1404 1435 1434
389 1 2017 2022 2016 2015
390 1 2019 2022 2021 2029
391 1 1401 1403 1402 1421
392 1 1402 1420 1401 1400
393 1 1401 1406 1420 1433
394 1 1403 1406 1405 1422
395 1 1407 1405 1406 1420
396 1 1402 1405 1403 1404
397 1 2309 2311 2310 2317
398 1 2310 2312 2311 2326
399 1 2012 2014 2013 2026
400 1 2011 2013 2012 2025
401 2 2000 2010 1998 1999
402 2 1995 2010 1996 1997
403 1 1996 1998 2010 2011
404 1 2012 2024 2011 2010
405 1 2014 2024 2023 2031
406 1 2311 2313 2312 2327
407 1 2313 2317 2315 2316
408 1 2312 2315 2313 2314
409 1 2310 2315 2317 2330
410 2 1390 1400 1388 1389
411 2 1385 1400 1386 1387
412 2 1406 1409 1407 1408
413 1 1407 1410 1409 1423
414 1 2223 2235 2222 2221
415 1 2225 2235 2234 2244
416 1 217 227 218 219
417 1 215 227 228 236
418 1 1935 1938 1937 1953
419 1 2228 2233 2227 2226
420 1 2230 2233 2232 2242
421 1 2224 2234 2225 2226
422 1 2222 2234 2235 2245
423 1 2223 2225 2224 2237
424 1 2229 2232 2230 2231
425 1 2227 2232 2233 2243
426 1 2227 2229 2228 2238
427 1 2228 2230 2229 2239
428 1 221 226 220 219
429 1 223 226 225 233
430 1 222 225 223 224
431 1 220 225 226 234
432 1 1803 1805 1804 1816
433 1 1823 1826 1842 1841
434 1 1804 1806 1805 1817
435 1 1805 1808 1806 1807
436 1 1803 1808 1809 1819
437 1 1823 1824 1807 1806
438 2 1826 1807 1824 1825
439 2 1842 1807 1823 1822
440 1 1829 1842 1841 1848
441 1 1824 1827 1826 1842
442 1 221 223 222 232
443 1 1804 1809 1803 1802
444 1 1806 1809 1808 1818
445 1 1828 1841 1829 1830
446 1 220 222 221 231
447 1 216 218 217 230
448 1 1826 1828 1827 1843
449 1 2140 2153 2152 2159
450 2 241 224 239 240
451 2 257 224 238 237
452 1 2134 2137 2153 2152
453 1 2134 2135 2120 2119
454 1 2135 2138 2137 2153
455 1 2063 2073 2064 2065
456 1 2061 2073 2074 2082
457 1 2067 2069 2068 2078
458 1 2066 2068 2067 2077
459 1 2068 2071 2069 2070
460 1 2066 2071 2072 2080
461 1 1934 1937 1953 1952
462 1 1934 1935 1920 1919
463 2 1937 1920 1935 1936
464 2 1953 1920 1934 1933
465 1 2067 2072 2066 2065
466 1 2069 2072 2071 2079
467 1 1916 1918 1917 1927
468 1 1917 1919 1918 1928
469 1 1800 1810 1801 1802
470 1 1798 1810 1811 1821
471 1 1799 1811 1798 1797
472 1 1801 1811 1810 1820
473 1 17 1 16 2
474 1 2 4 3 18
475 1 1 2 15 3
476 1 1912 1914 1913 1926
477 1 1799 1801 1800 1815
478 1 1913 1923 1914 1915
479 1 1911 1923 1924 1932
480 1 2137 2139 2138 2154
481 1 1940 1953 1952 1959
482 1 1917 1922 1916 1915
483 1 1919 1922 1921 1929
484 1 1918 1921 1919 1920
485 1 1916 1921 1922 1930
486 1 1535 1538 1554 1553
487 2 1538 1521 1536 1537
488 2 1554 1521 1535 1534
489 1 1536 1539 1538 1554
490 1 1535 1536 1521 1520
491 1 1388 1385 1390 1391
492 1 1383 1385 1384 1397
493 1 1386 1384 1385 1390
494 1 1382 1384 1383 1396
495 1 787 788 773 772
496 1 770 772 771 781
497 2 790 773 788 789
498 2 806 773 787 786
499 1 1145 1153 1144 1143
500 1 769 771 770 780
501 1 1148 1146 1147 1152
502 1 1144 1146 1145 1158
503 1 1144 1152 1153 1160
504 1 788 791 790 806
505 1 787 790 806 805
506 1 1150 1147 1152 1153
507 1 1145 1147 1146 1159
508 1 1148 1150 1162 1163
509 1 1140 1142 1141 1157
510 1 1141 1154 1142 1143
511 1 1411 1413 1412 1419
512 1 649 647 648 653
513 1 645 647 646 659
514 1 646 654 645 644
515 1 645 653 654 661
516 1 649 651 663 664
517 1 651 648 653 654
518 1 646 648 647 660
519 2 653 663 651 652
520 2 648 663 649 650
521 1 1412 1414 1413 1428
522 1 664 666 665 678
523 1 1413 1415 1414 1429
524 1 1414 1417 1415 1416
525 1 1412 1417 1419 1432
526 1 1415 1419 1417 1418
527 1 1139 1141 1140 1156
528 1 1137 1140 1139 1155
529 1 665 677 664 663
530 1 667 677 676 684
531 1 1136 1139 1155 1154
532 1 1142 1155 1154 1161
533 1 2222 2224 2223 2236
534 1 883 893 884 894
535 1 882 885 883 884
536 1 880 885 886 896
537 1 1943 1951 1942 1941
538 1 1948 1945 1950 1951
539 1 1943 1945 1944 1957
540 1 1942 1950 1951 1958
541 2 1950 1960 1948 1949
542 2 1945 1960 1946 1947
543 1 1946 1948 1960 1961
544 1 1963 1973 1964 1965
545 1 1961 1973 1974 1982
546 1 1962 1974 1961 1960
547 1 1964 1974 1973 1981
548 1 1962 1964 1963 1976
549 1 1961 1963 1962 1975
550 1 2139 2152 2140 2141
551 1 2138 2140 2139 2155
552 2 354 364 352 353
553 2 349 364 350 351
554 1 1518 1520 1519 1529
555 1 1276 1279 1277 1278
556 1 1274 1279 1281 1294
557 1 771 774 772 773
558 1 769 774 775 783
559 1 1275 1277 1276 1291
560 1 1517 1519 1518 1528
561 1 1274 1276 1275 1290
562 1 2143 2151 2142 2141
563 1 2142 2150 2151 2158
564 1 2146 2148 2160 2161
565 1 2146 2144 2145 2150
566 1 2142 2144 2143 2156
567 1 2148 2145 2150 2151
568 1 2143 2145 2144 2157
569 2 2150 2160 2148 2149
570 2 2145 2160 2146 2147
571 1 770 775 769 768
572 1 772 775 774 782
573 1 765 767 766 779
574 1 766 776 767 768
575 1 764 776 777 785
576 1 366 384 365 364
577 1 764 766 765 778
578 1 765 777 764 763
579 1 767 777 776 784
580 1 2624 2628 2626 2627
581 1 793 806 805 812
582 1 791 793 792 808
583 1 790 792 791 807
584 1 792 805 793 794
585 1 2337 2339 2338 2354
586 1 799 797 798 803
587 1 795 797 796 809
588 1 801 798 803 804
589 1 796 798 797 810
590 1 795 803 804 811
591 1 796 804 795 794
592 1 900 914 899 915
593 1 901 913 900 899
594 1 903 913 912 922
595 1 2623 2626 2624 2625
596 1 2621 2626 2628 2641
597 1 2622 2624 2623 2638
598 1 799 801 813 814
599 1 2336 2338 2337 2353
600 1 570 572 571 581
601 1 571 574 572 573
602 1 569 574 575 583
603 1 570 575 569 568
604 1 572 575 574 582
605 1 592 605 593 594
606 1 902 912 903 904
607 1 900 912 913 923
608 1 569 571 570 580
609 1 881 883 882 892
610 1 665 667 666 679
611 1 666 676 667 668
612 1 664 676 677 685
613 1 480 482 481 497
614 1 479 481 480 496
615 1 477 480 479 495
616 1 481 494 482 483
617 1 482 495 494 501
618 1 476 479 495 494
619 1 476 477 460 459
620 2 479 460 477 478
621 2 495 460 476 475
622 1 457 459 458 470
623 1 458 461 459 460
624 1 456 461 462 472
625 1 456 458 457 469
626 1 875 877 876 889
627 1 599 601 613 614
628 2 603 613 601 602
629 2 598 613 599 600
630 1 596 604 595 594
631 1 880 882 881 891
632 1 457 462 456 455
633 1 459 462 461 471
634 1 595 603 604 611
635 1 343 356 344 345
636 1 876 878 877 890
637 1 165 167 166 179
638 1 881 886 880 879
639 1 883 886 885 895
640 1 166 168 167 180
641 1 167 177 168 169
642 1 165 177 178 186
643 1 166 178 165 164
644 1 168 178 177 185
645 1 342 344 343 359
646 1 347 355 346 345
647 1 30 32 31 47
648 2 154 164 152 153
649 2 149 164 150 151
650 1 150 152 164 165
651 1 876 888 875 874
652 1 878 888 887 897
653 1 877 887 878 879
654 1 875 887 888 898
655 1 346 354 355 362
656 1 146 154 155 162
657 1 147 155 146 145
658 1 152 149 154 155
659 1 147 149 148 161
660 1 28 31 30 46
661 1 341 343 342 358
662 1 350 352 364 365
663 1 338 341 357 356
664 1 350 348 349 354
665 1 346 348 347 360
666 1 352 349 354 355
667 1 347 349 348 361
668 2 864 874 862 863
669 2 859 874 860 861
670 1 31 33 32 48
671 1 143 156 144 145
672 1 339 342 341 357
673 1 564 566 565 578
674 1 2345 2343 2344 2349
675 1 2341 2343 2342 2355
676 1 546 554 545 544
677 1 2545 2543 2544 2549
678 1 2541 2543 2542 2555
679 1 549 547 548 553
680 1 545 547 546 559
681 1 551 548 553 554
682 1 546 548 547 560
683 1 545 553 554 561
684 1 549 551 563 564
685 2 553 563 551 552
686 2 548 563 549 550
687 1 565 567 566 579
688 1 566 576 567 568
689 1 564 576 577 585
690 1 565 577 564 563
691 1 567 577 576 584
692 1 144 157 156 163
693 2 753 763 751 752
694 2 748 763 749 750
695 1 749 751 763 764
696 1 292 294 293 309
697 1 291 293 292 308
698 1 2085 2088 2087 2103
699 1 293 306 294 295
700 2 590 573 588 589
701 2 606 573 587 586
702 1 593 606 605 612
703 1 289 292 291 307
704 1 2088 2090 2089 2105
705 2 803 813 801 802
706 2 798 813 799 800
707 1 2334 2337 2336 2352
708 1 2333 2336 2352 2351
709 2 819 822 820 821
710 1 814 819 833 846
711 1 816 819 818 835
712 1 815 833 814 813
713 1 820 823 822 836
714 1 2087 2089 2088 2104
715 1 587 588 573 572
716 1 587 590 606 605
717 1 588 591 590 606
718 1 590 592 591 607
719 1 288 291 307 306
720 1 288 289 274 273
721 1 270 272 271 281
722 1 294 307 306 313
723 2 291 274 289 290
724 2 307 274 288 287
725 1 720 725 719 718
726 1 722 725 724 732
727 1 2305 2308 2307 2321
728 1 2013 2023 2014 2015
729 1 2011 2023 2024 2032
730 1 820 818 819 833
731 1 815 818 816 817
732 1 591 593 592 608
733 1 814 816 815 834
734 1 849 852 851 867
735 1 851 853 852 868
736 1 601 598 603 604
737 1 596 598 597 610
738 1 848 849 817 816
739 1 848 851 867 866
740 2 851 817 849 850
741 2 867 817 848 847
742 1 854 867 866 873
743 1 599 597 598 603
744 1 595 597 596 609
745 1 853 866 854 855
746 1 852 854 853 869
747 1 857 865 856 855
748 1 856 864 865 872
749 1 860 862 874 875
750 1 862 859 864 865
751 1 857 859 858 871
752 1 434 444 435 445
753 1 215 217 216 229
754 1 431 433 432 442
755 1 32 45 33 34
756 1 27 30 46 45
757 1 33 46 45 52
758 1 860 858 859 864
759 1 856 858 857 870
760 1 432 434 433 443
761 1 432 437 431 430
762 1 434 437 436 446
763 1 433 436 434 435
764 1 431 436 437 447
765 1 27 28 11 10
766 2 30 11 28 29
767 2 46 11 27 26
768 1 8 10 9 21
769 1 7 9 8 20
770 1 9 12 10 11
771 1 7 12 13 23
772 1 8 13 7 6
773 1 10 13 12 22
774 1 3 5 4 19
775 1 5 15 14 24
776 1 338 339 324 323
777 1 117 127 118 119
778 1 115 127 128 136
779 1 115 117 116 129
780 1 116 118 117 130
781 1 1798 1800 1799 1814
782 1 1798 1812 1797 1813
783 1 121 126 120 119
784 1 123 126 125 133
785 1 120 122 121 131
786 1 138 141 157 156
787 2 141 124 139 140
788 2 157 124 138 137
789 1 122 125 123 124
790 1 120 125 126 134
791 1 138 139 124 123
792 1 4 14 5 6
793 1 2 14 15 25
794 1 121 123 122 132
795 1 271 273 272 282
796 1 272 275 273 274
797 1 270 275 276 284
798 1 271 276 270 269
799 1 273 276 275 283
800 1 1302 1315 1303 1304
801 1 1040 1042 1041 1057
802 1 1039 1041 1040 1056
803 1 1037 1040 1039 1055
804 1 1613 1625 1612 1611
805 1 1615 1625 1624 1632
806 1 1614 1624 1615 1616
807 1 1612 1624 1625 1633
808 1 1303 1316 1315 1322
809 2 1300 1266 1298 1299
810 2 1316 1266 1297 1296
811 1 1263 1265 1264 1283
812 1 1297 1298 1266 1265
813 1 1297 1300 1316 1315
814 1 1264 1282 1263 1262
815 1 1269 1267 1268 1282
816 1 1264 1267 1265 1266
817 2 1252 1262 1250 1251
818 2 1247 1262 1248 1249
819 1 1248 1250 1262 1263
820 2 1601 1611 1599 1600
821 2 1596 1611 1597 1598
822 1 1263 1268 1282 1295
823 1 1265 1268 1267 1284
824 1 1613 1615 1614 1627
825 1 1301 1303 1302 1318
826 1 1041 1054 1042 1043
827 1 1992 2000 2001 2008
828 1 1998 1995 2000 2001
829 1 1993 1995 1994 2007
830 1 1045 1053 1044 1043
831 1 1996 1994 1995 2000
832 1 1992 1994 1993 2006
833 1 1993 2001 1992 1991
834 1 1306 1314 1305 1304
835 1 1050 1047 1052 1053
836 1 1045 1047 1046 1059
837 1 1309 1311 1323 1324
838 2 1313 1323 1311 1312
839 2 1308 1323 1309 1310
840 1 1044 1052 1053 1060
841 1 1048 1050 1062 1063
842 2 1052 1062 1050 1051
843 2 1047 1062 1048 1049
844 1 1064 1076 1063 1062
845 1 1066 1076 1075 1083
846 1 1617 1619 1618 1628
847 1 1325 1337 1324 1323
848 1 1327 1337 1336 1346
849 1 1305 1313 1314 1321
850 1 1065 1075 1066 1067
851 1 1063 1075 1076 1084
852 1 1326 1336 1327 1328
853 1 1324 1336 1337 1347
854 1 1048 1046 1047 1052
855 1 1044 1046 1045 1058
856 1 1324 1326 1325 1338
857 1 1827 1829 1828 1844
858 1 2230 2240 2231 2241
859 1 1989 2002 1990 1991
860 1 1988 1990 1989 2005
861 1 238 239 224 223
862 1 1325 1327 1326 1339
863 1 1832 1840 1831 1830
864 1 1987 1989 1988 2004
865 1 1985 1988 1987 2003
866 1 2118 2121 2119 2120
867 1 2116 2121 2122 2130
868 1 1851 1869 1850 1849
869 1 1835 1837 1849 1850
870 1 1831 1839 1840 1847
871 2 1839 1849 1837 1838
872 2 1834 1849 1835 1836
873 1 1837 1834 1839 1840
874 1 1832 1834 1833 1846
875 1 2117 2122 2116 2115
876 1 2119 2122 2121 2129
877 1 1835 1833 1834 1839
878 1 1831 1833 1832 1845
879 1 2117 2119 2118 2128
880 2 2137 2120 2135 2136
881 2 2153 2120 2134 2133
882 1 1850 1852 1851 1870
883 1 1850 1855 1869 1882
884 1 1852 1855 1854 1871
885 1 239 242 241 257
886 1 238 241 257 256
887 1 1911 1913 1912 1925
888 1 2116 2118 2117 2127
889 2 1268 1271 1269 1270
890 1 1912 1924 1911 1910
891 1 1914 1924 1923 1931
892 1 2112 2114 2113 2126
893 1 2113 2123 2114 2115
894 1 2111 2123 2124 2132
895 2 1900 1910 1898 1899
896 2 1895 1910 1896 1897
897 1 1896 1898 1910 1911
898 1 2112 2124 2111 2110
899 1 2114 2124 2123 2131
900 1 1269 1272 1271 1285
901 1 1892 1900 1901 1908
902 1 1898 1895 1900 1901
903 1 1893 1895 1894 1907
904 1 1893 1901 1892 1891
905 1 1896 1894 1895 1900
906 1 1892 1894 1893 1906
907 1 1718 1721 1720 1734
908 1 1726 1730 1728 1729
909 1 1725 1728 1726 1727
910 1 1723 1728 1730 1743
911 1 1244 1252 1253 1260
912 1 1042 1055 1054 1061
913 1 1036 1039 1055 1054
914 2 1152 1162 1150 1151
915 2 1147 1162 1148 1149
916 1 1164 1176 1163 1162
917 1 1166 1176 1175 1183
918 2 1039 1022 1037 1038
919 2 1055 1022 1036 1035
920 1 1018 1020 1019 1029
921 1 1019 1021 1020 1030
922 1 1020 1023 1021 1022
923 1 1018 1023 1024 1032
924 1 1019 1024 1018 1017
925 1 1021 1024 1023 1031
926 1 1036 1037 1022 1021
927 1 905 907 906 918
928 1 906 908 907 919
929 1 1165 1175 1166 1167
930 1 1163 1175 1176 1184
931 1 907 910 908 909
932 1 905 910 911 921
933 2 928 909 926 927
934 2 944 909 925 924
935 1 925 926 909 908
936 1 1245 1253 1244 1243
937 1 906 911 905 904
938 1 908 911 910 920
939 1 925 928 944 943
940 1 926 929 928 944
941 1 931 944 943 950
942 1 928 930 929 945
943 1 929 931 930 946
944 1 930 943 931 932
945 1 1136 1137 1122 1121
946 2 1139 1122 1137 1138
947 2 1155 1122 1136 1135
948 1 1118 1120 1119 1129
949 1 1119 1121 1120 1130
950 1 934 942 933 932
951 1 1990 2003 2002 2009
952 1 1984 1987 2003 2002
953 1 1968 1971 1969 1970
954 1 1966 1971 1972 1980
955 1 1967 1972 1966 1965
956 1 1969 1972 1971 1979
957 1 1966 1968 1967 1977
958 1 1967 1969 1968 1978
959 2 1987 1970 1985 1986
960 2 2003 1970 1984 1983
961 1 1984 1985 1970 1969
962 1 399 400 368 367
963 1 365 367 366 385
964 1 400 403 402 418
965 2 402 368 400 401
966 2 418 368 399 398
967 1 399 402 418 417
968 1 402 404 403 419
969 1 405 418 417 424
970 1 1277 1281 1279 1280
971 1 2616 2619 2618 2632
972 1 1164 1166 1165 1178
973 1 365 370 384 397
974 1 367 370 369 386
975 1 1273 1275 1274 1281
976 2 1717 1720 1718 1719
977 1 1722 1724 1723 1730
978 1 1723 1725 1724 1739
979 1 1724 1726 1725 1740
980 1 371 369 370 384
981 1 366 369 367 368
982 1 1163 1165 1164 1177
983 1 371 374 373 387
984 1 1169 1174 1168 1167
985 1 1171 1174 1173 1181
986 1 1168 1170 1169 1179
987 1 1170 1173 1171 1172
988 1 1168 1173 1174 1182
989 2 370 373 371 372
990 1 1169 1171 1170 1180
991 1 379 383 381 382
992 1 377 383 376 375
993 1 378 381 379 380
994 1 376 381 383 396
995 2 2615 2618 2616 2617
996 1 900 902 901 916
997 1 2621 2623 2622 2637
998 1 901 903 902 917
999 1 2616 2614 2615 2629
1000 1 2611 2614 2612 2613
1001 1 2610 2612 2611 2630
1002 1 2610 2615 2629 2642
1003 1 2612 2615 2614 2631
1004 2 2647 2613 2645 2646
1005 2 2663 2613 2644 2643
1006 1 2395 2393 2394 2399
1007 1 2391 2393 2392 2405
1008 1 2397 2394 2399 2400
1009 1 2392 2394 2393 2406
1010 1 2650 2663 2662 2669
1011 1 2649 2662 2650 2651
1012 1 2644 2645 2613 2612
1013 1 2644 2647 2663 2662
1014 1 2648 2650 2649 2665
1015 1 2611 2629 2610 2609
1016 1 2620 2622 2621 2628
1017 1 738 741 740 756
1018 1 2645 2648 2647 2663
1019 1 2647 2649 2648 2664
1020 1 737 740 756 755
1021 1 670 675 669 668
1022 1 672 675 674 682
1023 1 671 674 672 673
1024 1 669 674 675 683
1025 1 670 672 671 681
1026 1 669 671 670 680
1027 1 452 454 453 468
1028 1 451 453 452 467
1029 2 690 673 688 689
1030 2 706 673 687 686
1031 1 1120 1123 1121 1122
1032 1 1118 1123 1124 1132
1033 1 1119 1124 1118 1117
1034 1 1121 1124 1123 1131
1035 1 1114 1116 1115 1128
1036 1 1113 1115 1114 1127
1037 1 453 463 454 455
1038 1 451 463 464 474
1039 1 451 465 450 466
1040 1 452 464 451 450
1041 1 454 464 463 473
1042 1 687 688 673 672
1043 1 687 690 706 705
1044 1 693 706 705 712
1045 1 688 691 690 706
1046 1 1115 1125 1116 1117
1047 1 1113 1125 1126 1134
1048 1 142 144 143 159
1049 1 150 148 149 154
1050 1 146 148 147 160
1051 1 408 416 407 406
1052 1 411 413 425 426
1053 1 407 415 416 423
1054 1 404 417 405 406
1055 1 403 405 404 420
1056 1 413 410 415 416
1057 1 408 410 409 422
1058 1 411 409 410 415
1059 1 407 409 408 421
1060 2 415 425 413 414
1061 2 410 425 411 412
1062 1 66 68 67 82
1063 1 377 379 378 393
1064 1 749 747 748 753
1065 1 745 747 746 759
1066 1 745 753 754 761
1067 1 751 748 753 754
1068 1 746 748 747 760
1069 1 746 754 745 744
1070 1 2495 2493 2494 2499
1071 1 2491 2493 2492 2505
1072 1 740 742 741 757
1073 1 376 378 377 392
1074 1 2487 2489 2488 2504
1075 1 2488 2501 2489 2490
1076 1 741 743 742 758
1077 1 2492 2500 2491 2490
1078 1 2497 2494 2499 2500
1079 1 2492 2494 2493 2506
1080 1 2491 2499 2500 2507
1081 1 1298 1301 1300 1316
1082 1 1300 1302 1301 1317
1083 1 715 717 716 729
1084 1 1612 1614 1613 1626
1085 1 721 724 722 723
1086 1 719 724 725 733
1087 1 720 722 721 731
1088 1 719 721 720 730
1089 2 740 723 738 739
1090 2 756 723 737 736
1091 1 737 738 723 722
1092 1 2653 2661 2652 2651
1093 1 2656 2658 2670 2671
1094 1 2652 2660 2661 2668
1095 2 2660 2670 2658 2659
1096 2 2655 2670 2656 2657
1097 1 716 726 717 718
1098 1 714 726 727 735
1099 1 2658 2655 2660 2661
1100 1 2653 2655 2654 2667
1101 1 1618 1623 1617 1616
1102 1 1620 1623 1622 1630
1103 1 743 756 755 762
1104 1 714 716 715 728
1105 1 1311 1308 1313 1314
1106 1 1306 1308 1307 1320
1107 1 1862 1864 1863 1878
1108 1 699 697 698 703
1109 1 695 697 696 709
1110 1 2656 2654 2655 2660
1111 1 2652 2654 2653 2666
1112 1 701 698 703 704
1113 1 696 698 697 710
1114 1 1863 1866 1864 1865
1115 1 1861 1866 1868 1881
1116 1 692 705 693 694
1117 1 696 704 695 694
1118 1 715 727 714 713
1119 1 717 727 726 734
1120 2 703 713 701 702
1121 2 698 713 699 700
1122 1 699 701 713 714
1123 1 1864 1868 1866 1867
1124 1 695 703 704 711
1125 1 1309 1307 1308 1313
1126 1 1305 1307 1306 1319
1127 2 1887 1853 1885 1886
1128 2 1903 1853 1884 1883
1129 1 426 428 427 440
1130 1 141 143 142 158
1131 1 1861 1863 1862 1877
1132 1 691 693 692 708
1133 1 1856 1859 1858 1872
1134 1 427 429 428 441
1135 1 139 142 141 157
1136 1 428 438 429 430
1137 1 426 438 439 449
1138 1 1856 1854 1855 1869
1139 1 1851 1854 1852 1853
1140 1 427 439 426 425
1141 1 429 439 438 448
1142 2 1855 1858 1856 1857
1143 1 1860 1862 1861 1868
1144 1 244 257 256 263
1145 1 241 243 242 258
1146 1 242 244 243 259
1147 1 247 255 246 245
1148 1 243 256 244 245
1149 1 250 248 249 254
1150 1 246 248 247 260
1151 1 690 692 691 707
1152 1 246 254 255 262
1153 1 252 249 254 255
1154 1 247 249 248 261
1155 1 1884 1885 1853 1852
1156 1 2093 2101 2092 2091
1157 1 266 268 267 280
1158 1 2096 2094 2095 2100
1159 1 2092 2094 2093 2106
1160 1 2111 2113 2112 2125
1161 1 1888 1890 1889 1905
1162 1 2486 2488 2487 2503
1163 1 2489 2502 2501 2508
1164 1 267 277 268 269
1165 1 265 277 278 286
1166 1 265 267 266 279
1167 1 2092 2100 2101 2108
1168 1 2096 2098 2110 2111
1169 1 2484 2487 2486 2502
1170 1 1884 1887 1903 1902
1171 1 1887 1889 1888 1904
1172 1 1885 1888 1887 1903
1173 1 742 755 743 744
1174 1 250 252 264 265
1175 2 254 264 252 253
1176 2 249 264 250 251
1177 2 2100 2110 2098 2099
1178 2 2095 2110 2096 2097
1179 1 2098 2095 2100 2101
1180 1 2093 2095 2094 2107
1181 1 266 278 265 264
1182 1 268 278 277 285
1183 1 2483 2486 2502 2501
1184 1 2483 2484 2469 2468
1185 2 2486 2469 2484 2485
1186 2 2502 2469 2483 2482
1187 1 1485 1486 1471 1470
1188 1 1486 1489 1488 1504
1189 1 1469 1472 1470 1471
1190 1 1467 1472 1473 1481
1191 1 1485 1488 1504 1503
1192 1 1355 1360 1354 1353
1193 1 1357 1360 1359 1369
1194 2 1488 1471 1486 1487
1195 2 1504 1471 1485 1484
1196 1 1468 1470 1469 1479
1197 1 1491 1504 1503 1510
1198 1 1350 1352 1351 1366
1199 1 1351 1361 1352 1353
1200 1 1349 1361 1362 1372
1201 1 1349 1351 1350 1365
1202 1 1350 1362 1349 1348
1203 1 1352 1362 1361 1371
1204 1 1467 1469 1468 1478
1205 1 1686 1689 1688 1704
1206 1 1490 1503 1491 1492
1207 1 1688 1690 1689 1705
1208 1 1349 1363 1348 1364
1209 1 1488 1490 1489 1505
1210 1 1489 1491 1490 1506
1211 1 1597 1599 1611 1612
1212 1 2445 2443 2444 2449
1213 1 2441 2443 2442 2455
1214 1 2678 2681 2679 2680
1215 1 2676 2681 2682 2692
1216 1 2447 2444 2449 2450
1217 1 2442 2444 2443 2456
1218 1 1447 1449 1461 1462
1219 1 1647 1649 1661 1662
1220 1 1618 1620 1619 1629
1221 1 1468 1473 1467 1466
1222 1 1470 1473 1472 1480
1223 1 1063 1065 1064 1077
1224 1 2679 2689 2680 2690
1225 2 1451 1461 1449 1450
1226 2 1446 1461 1447 1448
1227 1 1463 1475 1462 1461
1228 1 1465 1475 1474 1482
1229 1 1462 1464 1463 1476
1230 1 1464 1474 1465 1466
1231 1 1462 1474 1475 1483
1232 1 1463 1465 1464 1477
1233 1 1649 1646 1651 1652
1234 1 1644 1646 1645 1658
1235 1 1064 1066 1065 1078
1236 1 1069 1074 1068 1067
1237 1 1071 1074 1073 1081
1238 1 1643 1651 1652 1659
1239 1 1640 1653 1641 1642
1240 1 1644 1652 1643 1642
1241 1 2677 2679 2678 2688
1242 1 1641 1654 1653 1660
1243 1 1639 1641 1640 1656
1244 1 1449 1446 1451 1452
1245 1 1444 1446 1445 1458
1246 1 1330 1335 1329 1328
1247 1 1332 1335 1334 1344
1248 1 1329 1331 1330 1340
1249 1 1331 1334 1332 1333
1250 1 1329 1334 1335 1345
1251 1 1330 1332 1331 1341
1252 1 1758 1756 1757 1762
1253 1 1754 1756 1755 1768
1254 1 1760 1757 1762 1763
1255 1 1755 1757 1756 1769
1256 1 1647 1645 1646 1651
1257 1 1643 1645 1644 1657
1258 1 1068 1070 1069 1079
1259 1 1332 1342 1333 1343
1260 1 1755 1763 1754 1753
1261 1 1754 1762 1763 1770
1262 1 1889 1902 1890 1891
1263 1 1890 1903 1902 1909
1264 1 1593 1601 1602 1609
1265 1 1599 1596 1601 1602
1266 1 1594 1596 1595 1608
1267 1 1590 1603 1591 1592
1268 1 1497 1499 1511 1512
1269 2 1762 1772 1760 1761
1270 2 1757 1772 1758 1759
1271 1 1597 1595 1596 1601
1272 1 1593 1595 1594 1607
1273 1 1758 1760 1772 1773
1274 1 1594 1602 1593 1592
1275 1 1499 1496 1501 1502
1276 1 1494 1496 1495 1508
1277 1 1497 1495 1496 1501
1278 1 1493 1495 1494 1507
1279 1 1493 1501 1502 1509
1280 1 1494 1502 1493 1492
1281 1 1589 1591 1590 1606
1282 1 1591 1604 1603 1610
1283 1 995 1003 994 993
1284 1 1250 1247 1252 1253
1285 1 1245 1247 1246 1259
1286 1 994 1002 1003 1010
1287 1 1000 997 1002 1003
1288 1 995 997 996 1009
1289 1 1248 1246 1247 1252
1290 1 1244 1246 1245 1258
1291 1 1014 1016 1015 1028
1292 1 1694 1702 1693 1692
1293 1 1697 1695 1696 1701
1294 1 1693 1695 1694 1707
1295 1 1699 1696 1701 1702
1296 1 1694 1696 1695 1708
1297 1 1013 1015 1014 1027
1298 2 1002 1012 1000 1001
1299 2 997 1012 998 999
1300 1 998 1000 1012 1013
1301 1 1015 1025 1016 1017
1302 1 1013 1025 1026 1034
1303 1 1014 1026 1013 1012
1304 1 1016 1026 1025 1033
1305 1 1693 1701 1702 1709
1306 1 1239 1241 1240 1256
1307 1 1237 1240 1239 1255
1308 1 1236 1237 1222 1221
1309 2 989 955 987 988
1310 2 1005 955 986 985
1311 1 1240 1242 1241 1257
1312 2 957 960 958 959
1313 1 958 956 957 971
1314 1 953 956 954 955
1315 1 952 954 953 972
1316 1 1218 1220 1219 1229
1317 1 952 957 971 984
1318 1 954 957 956 973
1319 1 1242 1255 1254 1261
1320 1 1236 1239 1255 1254
1321 1 1219 1221 1220 1230
1322 1 1241 1254 1242 1243
1323 2 1239 1222 1237 1238
1324 2 1255 1222 1236 1235
1325 1 937 935 936 941
1326 1 933 935 934 947
1327 1 939 936 941 942
1328 1 934 936 935 948
1329 1 933 941 942 949
1330 1 953 971 952 951
1331 2 941 951 939 940
1332 2 936 951 937 938
1333 1 937 939 951 952
1334 1 1098 1100 1112 1113
1335 1 1070 1073 1071 1072
1336 1 1068 1073 1074 1082
1337 1 1069 1071 1070 1080
1338 2 1089 1072 1087 1088
1339 2 1105 1072 1086 1085
1340 1 1086 1087 1072 1071
1341 1 1092 1105 1104 1111
1342 1 1091 1104 1092 1093
1343 1 1086 1089 1105 1104
1344 1 1090 1092 1091 1107
1345 1 1087 1090 1089 1105
1346 1 1089 1091 1090 1106
1347 1 1750 1752 1751 1767
1348 1 1749 1751 1750 1766
1349 1 1095 1103 1094 1093
1350 1 1094 1102 1103 1110
1351 2 1701 1711 1699 1700
1352 2 1696 1711 1697 1698
1353 1 1697 1699 1711 1712
1354 1 1751 1764 1752 1753
1355 1 1752 1765 1764 1771
1356 1 1747 1750 1749 1765
1357 1 1194 1202 1203 1210
1358 1 1718 1716 1717 1731
1359 1 1713 1716 1714 1715
1360 1 1712 1717 1731 1744
1361 1 1714 1717 1716 1733
1362 2 1189 1172 1187 1188
1363 2 1205 1172 1186 1185
1364 1 1186 1187 1172 1171
1365 1 1746 1749 1765 1764
1366 1 1713 1731 1712 1711
1367 1 1746 1747 1715 1714
1368 1 1712 1714 1713 1732
1369 2 1749 1715 1747 1748
1370 2 1765 1715 1746 1745
1371 1 1195 1203 1194 1193
1372 1 1189 1191 1190 1206
1373 1 1190 1192 1191 1207
1374 1 1191 1204 1192 1193
1375 1 1186 1189 1205 1204
1376 1 1192 1205 1204 1211
1377 1 1187 1190 1189 1205
1378 1 2589 2602 2601 2608
1379 1 1198 1200 1212 1213
1380 1 1215 1225 1216 1217
1381 1 1213 1225 1226 1234
1382 1 1214 1226 1213 1212
1383 1 1216 1226 1225 1233
1384 1 2583 2584 2569 2568
1385 1 2588 2601 2589 2590
1386 1 2391 2399 2400 2407
1387 2 2399 2409 2397 2398
1388 2 2394 2409 2395 2396
1389 1 2583 2586 2602 2601
1390 1 2597 2594 2599 2600
1391 1 2592 2594 2593 2606
1392 2 2599 2609 2597 2598
1393 2 2594 2609 2595 2596
1394 1 2591 2599 2600 2607
1395 1 2595 2597 2609 2610
1396 1 2595 2593 2594 2599
1397 1 2591 2593 2592 2605
1398 1 2592 2600 2591 2590
1399 1 517 521 519 520
1400 1 516 519 517 518
1401 1 514 519 521 534
1402 1 2392 2400 2391 2390
1403 1 2395 2397 2409 2410
1404 1 2584 2587 2586 2602
1405 1 2586 2588 2587 2603
1406 1 2587 2589 2588 2604
1407 1 2411 2423 2410 2409
1408 1 2413 2423 2422 2430
1409 1 2412 2422 2413 2414
1410 1 2410 2422 2423 2431
1411 1 1114 1126 1113 1112
1412 1 1116 1126 1125 1133
1413 1 1220 1223 1221 1222
1414 1 1218 1223 1224 1232
1415 1 1219 1224 1218 1217
1416 1 1221 1224 1223 1231
1417 1 2411 2413 2412 2425
1418 1 2410 2412 2411 2424
1419 1 2415 2417 2416 2426
1420 2 1102 1112 1100 1101
1421 2 1097 1112 1098 1099
1422 1 65 67 66 81
1423 1 67 70 68 69
1424 1 65 70 72 85
1425 1 1100 1097 1102 1103
1426 1 1095 1097 1096 1109
1427 1 1098 1096 1097 1102
1428 1 1094 1096 1095 1108
1429 1 2515 2517 2516 2526
1430 1 68 72 70 71
1431 1 54 59 73 86
1432 1 56 59 58 75
1433 1 60 58 59 73
1434 1 55 58 56 57
1435 1 64 66 65 72
1436 1 60 63 62 76
1437 2 59 62 60 61
1438 1 2517 2520 2518 2519
1439 1 2515 2520 2521 2529
1440 1 2512 2522 2513 2514
1441 1 2510 2522 2523 2531
1442 1 2511 2513 2512 2525
1443 1 2516 2521 2515 2514
1444 1 2518 2521 2520 2528
1445 1 513 515 514 521
1446 1 515 517 516 531
1447 1 2511 2523 2510 2509
1448 1 2513 2523 2522 2530
1449 1 514 516 515 530
1450 1 2386 2388 2387 2403
1451 1 2387 2389 2388 2404
1452 1 2388 2401 2389 2390
1453 1 2367 2370 2368 2369
1454 1 2365 2370 2371 2379
1455 1 2366 2371 2365 2364
1456 1 2368 2371 2370 2378
1457 1 2510 2512 2511 2524
1458 1 2384 2387 2386 2402
1459 1 2383 2386 2402 2401
1460 1 2383 2384 2369 2368
1461 2 2499 2509 2497 2498
1462 2 2494 2509 2495 2496
1463 1 2366 2368 2367 2377
1464 1 2365 2367 2366 2376
1465 1 2495 2497 2509 2510
1466 2 2386 2369 2384 2385
1467 2 2402 2369 2383 2382
1468 1 2389 2402 2401 2408
1469 1 2677 2682 2676 2675
1470 1 2679 2682 2681 2691
1471 2 1588 1571 1586 1587
1472 2 1604 1571 1585 1584
1473 1 2465 2467 2466 2476
1474 1 2253 2255 2254 2266
1475 1 2272 2273 2256 2255
1476 1 2273 2276 2275 2291
1477 2 2275 2256 2273 2274
1478 2 2291 2256 2272 2271
1479 1 2272 2275 2291 2290
1480 1 2278 2291 2290 2297
1481 1 2277 2290 2278 2279
1482 2 2449 2459 2447 2448
1483 2 2444 2459 2445 2446
1484 1 2461 2473 2460 2459
1485 1 2463 2473 2472 2480
1486 1 2460 2462 2461 2474
1487 1 2445 2447 2459 2460
1488 1 2671 2673 2672 2685
1489 1 2462 2472 2463 2464
1490 1 2460 2472 2473 2481
1491 1 2461 2463 2462 2475
1492 1 2441 2449 2450 2457
1493 1 2275 2277 2276 2292
1494 1 2276 2278 2277 2293
1495 1 2672 2674 2673 2686
1496 1 2281 2289 2280 2279
1497 1 2673 2683 2674 2675
1498 1 2671 2683 2684 2694
1499 1 2672 2684 2671 2670
1500 1 2674 2684 2683 2693
1501 1 2442 2450 2441 2440
1502 1 2433 2436 2452 2451
1503 2 1638 1621 1636 1637
1504 2 1654 1621 1635 1634
1505 1 2416 2421 2415 2414
1506 1 2418 2421 2420 2428
1507 1 2433 2434 2419 2418
1508 1 1619 1622 1620 1621
1509 1 1617 1622 1623 1631
1510 1 2416 2418 2417 2427
1511 1 1635 1638 1654 1653
1512 1 1638 1640 1639 1655
1513 1 2676 2678 2677 2687
1514 1 1635 1636 1621 1620
1515 1 1636 1639 1638 1654
1516 1 2417 2420 2418 2419
1517 1 2415 2420 2421 2429
1518 1 2438 2451 2439 2440
1519 1 2439 2452 2451 2458
1520 2 2436 2419 2434 2435
1521 2 2452 2419 2433 2432
1522 2 91 57 89 90
1523 2 107 57 88 87
1524 1 88 89 57 56
1525 1 88 91 107 106
1526 1 94 107 106 113
1527 1 89 92 91 107
1528 1 2252 2254 2253 2265
1529 1 2247 2249 2248 2263
1530 1 2254 2257 2255 2256
1531 1 2252 2257 2258 2268
1532 1 1585 1586 1571 1570
1533 1 2249 2259 2250 2251
1534 1 2247 2259 2260 2270
1535 1 2248 2250 2249 2264
1536 1 1585 1588 1604 1603
1537 1 91 93 92 108
1538 1 2466 2468 2467 2477
1539 1 93 106 94 95
1540 1 92 94 93 109
1541 1 2253 2258 2252 2251
1542 1 2255 2258 2257 2267
1543 1 2467 2470 2468 2469
1544 1 2465 2470 2471 2479
1545 1 2466 2471 2465 2464
1546 1 2468 2471 2470 2478
1547 1 1588 1590 1589 1605
1548 1 1586 1589 1588 1604
