LAMMPS (4 Jul 2026)
OMP_NUM_THREADS environment is not set. Defaulting to 1 thread.
  using 1 OpenMP thread(s) per MPI task
Loaded 1 plugins from D:\LAMMPS 64-bit 4Jul2026-MSMPI\plugins
# Generated production protocol. Supply validated topology and force-field files before running.
clear
OMP_NUM_THREADS environment is not set. Defaulting to 1 thread.
  using 1 OpenMP thread(s) per MPI task
Restoring plugin: Hello world command v1.1 by Axel Kohlmeyer (akohlmey@gmail.com)
WARNING: Overriding built-in command style hello from plugin (src/PLUGIN/plugin.cpp:556)
Loaded 1 plugins from D:\LAMMPS 64-bit 4Jul2026-MSMPI\plugins
units real
atom_style full
boundary p p p
include forcefield.production
pair_style lj/cut/coul/long 12.0
pair_modify mix arithmetic
bond_style harmonic
angle_style harmonic
dihedral_style fourier
improper_style cvff
special_bonds amber
kspace_style pppm 1.0e-4
read_data system.data
Reading data file ...
  orthogonal box = (0 0 0) to (90 90 90)
  1 by 1 by 1 MPI processor grid
  reading atoms ...
  2694 atoms
  scanning bonds ...
  3 = max bonds/atom
  scanning angles ...
  6 = max angles/atom
  scanning dihedrals ...
  11 = max dihedrals/atom
  scanning impropers ...
  2 = max impropers/atom
  orthogonal box = (0 0 0) to (90 90 90)
  1 by 1 by 1 MPI processor grid
  reading bonds ...
  2988 bonds
  reading angles ...
  4902 angles
  reading dihedrals ...
  7656 dihedrals
  reading impropers ...
  1548 impropers
Finding 1-2 1-3 1-4 neighbors ...
  special bond factors lj:    0        0        0.5     
  special bond factors coul:  0        0        0.8333333333333334
     4 = max # of 1-2 neighbors
     7 = max # of 1-3 neighbors
    14 = max # of 1-4 neighbors
    16 = max # of special neighbors
  special bonds CPU = 0.003 seconds
  read_data CPU = 0.207 seconds

neighbor 2.0 bin
neigh_modify delay 0 every 1 check yes
thermo 1000
thermo_style custom step temp pe ke etotal vol press density
timestep 1.0

variable target_temperature index 298.15
label temperature_loop
velocity all create ${target_temperature} 4928459 mom yes rot yes dist gaussian
velocity all create 298.15 4928459 mom yes rot yes dist gaussian
fix production all npt temp ${target_temperature} ${target_temperature} 100.0 iso 1.0 1.0 1000.0
fix production all npt temp 298.15 ${target_temperature} 100.0 iso 1.0 1.0 1000.0
fix production all npt temp 298.15 298.15 100.0 iso 1.0 1.0 1000.0
run 100000
PPPM initialization ...
WARNING: System is not charge neutral, net charge = -6.59172e-05
For more information see https://docs.lammps.org/err0029 (src/kspace.cpp:329)
  using 12-bit tables for long-range coulomb
  G vector (1/distance) = 0.12845711
  grid = 12 12 12
  stencil order = 5
  estimated absolute RMS force accuracy = 0.031089538
  estimated relative force accuracy = 9.3625222e-05
  using double precision FFTW3
  3d grid and FFT values/proc = 4913 1728
Generated 91 of 91 mixed pair_coeff terms from arithmetic mixing rule
Neighbor list info ...
  update: every = 1 steps, delay = 0 steps, check = yes
  max neighbors/atom: 2000, page size: 100000
  master list distance cutoff = 14
  ghost atom cutoff = 14
  binsize = 7, bins = 13 13 13
  1 neighbor lists, perpetual/occasional/extra = 1 0 0
  (1) pair lj/cut/coul/long, perpetual
      attributes: half, newton on
      pair build: half/bin/newton
      stencil: half/bin/3d
      bin: standard
Per MPI rank memory allocation (min/avg/max) = 15.42 | 15.42 | 15.42 Mbytes
   Step          Temp          PotEng         KinEng         TotEng         Volume         Press         Density    
         0   298.15         2300.5365      2393.3459      4693.8824      729000        -467.6306       0.056987126  
      1000   293.49695      3482.7008      2355.9943      5838.6951      700875.43     -50.992092      0.059273893  
      2000   303.5694       3490.9741      2436.8492      5927.8232      661195.31      18.73732       0.062831079  
      3000   304.0804       3481.1121      2440.9511      5922.0632      611965.89     -33.780856      0.067885508  
      4000   297.87302      3457.4796      2391.1225      5848.6021      582894.3       47.584851      0.071271267  
      5000   301.27354      3333.318       2418.4196      5751.7376      553197.59     -43.201261      0.075097246  
      6000   294.81172      3339.1543      2366.5485      5705.7028      529712.82     -60.141073      0.078426675  
      7000   297.08205      3199.3131      2384.7731      5584.0862      503844.59      99.876511      0.082453232  
      8000   305.09539      3215.2501      2449.0988      5664.3489      483428.72     -51.262515      0.085935348  
      9000   297.35859      3220.1194      2386.993       5607.1123      463177.98     -18.219759      0.089692552  
     10000   298.90165      3167.6836      2399.3796      5567.0633      455562.09      7.0067366      0.091191993  
     11000   298.88382      3181.2624      2399.2365      5580.4988      433837.66      68.418782      0.095758435  
     12000   294.60371      3220.9105      2364.8787      5585.7892      410074.9      -88.746963      0.10130738   
     13000   296.68076      3151.9819      2381.5518      5533.5338      398606.99      15.912328      0.10422199   
     14000   306.39802      3119.7438      2459.5554      5579.2992      403873.55      74.515957      0.10286293   
     15000   291.9857       3165.4943      2343.8631      5509.3574      403275.57      33.76858       0.10301545   
     16000   292.94078      3149.0003      2351.5298      5500.53        405913.31     -6.2576744      0.10234603   
     17000   291.85266      3082.2833      2342.7951      5425.0784      390333.22      76.272066      0.10643115   
     18000   300.89046      3118.4499      2415.3445      5533.7944      367882.17      8.0700859      0.11292642   
     19000   294.84816      3030.5769      2366.841       5397.4179      350174.19     -263.39092      0.118637     
     20000   298.73127      3117.0257      2398.0119      5515.0377      337341.31      125.31229      0.1231501    
     21000   300.1406       2995.3987      2409.3251      5404.7238      325347.75     -41.331804      0.12768988   
     22000   294.90797      2954.8409      2367.3211      5322.1619      319308.93     -2.559696       0.13010477   
     23000   306.6258       2981.781       2461.3839      5443.1649      309570.48      48.819398      0.1341976    
     24000   303.33902      3090.5356      2434.9998      5525.5354      298590.93      105.95976      0.13913221   
     25000   291.65317      3057.4544      2341.1937      5398.6482      284236.83     -19.549738      0.14615845   
     26000   303.73833      3027.7139      2438.2052      5465.9191      268816.56     -32.693573      0.15454262   
     27000   298.38294      2969.4938      2395.2158      5364.7096      260798.42      204.90272      0.15929397   
     28000   298.918        2938.4465      2399.5109      5337.9574      252127.87     -198.78448      0.16477201   
     29000   299.20962      2964.361       2401.8518      5366.2127      238183.6       192.48489      0.17441845   
     30000   304.68767      2992.363       2445.8259      5438.1889      227727.95      43.488112      0.18242651   
     31000   290.45528      3010.5799      2331.5779      5342.1578      221603.27      142.23133      0.18746842   
     32000   299.1987       3022.2326      2401.7641      5423.9967      213700.21     -145.82219      0.19440138   
     33000   296.10681      2928.4726      2376.9446      5305.4172      204251.64      182.64681      0.20339428   
     34000   308.99848      2914.7128      2480.4301      5395.1429      194362.95      194.86397      0.21374246   
     35000   285.6537       2998.7475      2293.0341      5291.7816      189767.7      -177.38203      0.21891826   
     36000   298.59333      2973.1658      2396.9046      5370.0704      182756.5       152.72878      0.22731676   
     37000   303.34792      2999.5529      2435.0713      5434.6242      175369.33     -57.0374        0.23689214   
     38000   292.26134      2962.9539      2346.0757      5309.0296      166441.56     -162.59023      0.24959882   
     39000   306.0764       2997.0118      2456.9736      5453.9854      160827.17      141.54402      0.25831217   
     40000   302.70964      2892.2928      2429.9476      5322.2404      156982.26      16.783653      0.26463891   
     41000   289.15864      2906.0521      2321.1694      5227.2214      150353.17      553.53798      0.27630689   
     42000   294.46474      2981.0485      2363.7631      5344.8116      143403.19     -228.61157      0.28969799   
     43000   296.63116      3000.422       2381.1537      5381.5757      136910.34     -102.50647      0.30343665   
     44000   298.74593      3011.3662      2398.1296      5409.4959      132721.29     -259.84374      0.31301394   
     45000   306.3826       2884.6122      2459.4316      5344.0439      125784.96     -529.92638      0.3302749    
     46000   296.50932      2925.4218      2380.1756      5305.5974      120261.01      539.28785      0.34544543   
     47000   303.30648      2850.7367      2434.7386      5285.4753      113644.17      624.62081      0.36555871   
     48000   298.7001       2936.3081      2397.7617      5334.0698      106344.25     -455.17173      0.39065218   
     49000   297.87051      2874.7642      2391.1023      5265.8665      101337.59     -47.947128      0.40995268   
     50000   300.48249      2961.8704      2412.0695      5373.94        96137.321      135.16053      0.43212786   
     51000   295.752        2869.1456      2374.0964      5243.242       91837.951     -224.70733      0.45235782   
     52000   301.13924      2841.7377      2417.3415      5259.0792      90174.88      -672.45261      0.46070053   
     53000   293.10756      2846.4213      2352.8686      5199.2899      86825.462      513.01723      0.47847272   
     54000   301.76087      2903.3715      2422.3315      5325.703       86064.786     -741.80498      0.48270166   
     55000   298.66842      2822.7812      2397.5074      5220.2886      81057.457      354.74331      0.51252058   
     56000   299.78023      2893.0219      2406.4323      5299.4542      76875.733     -681.26985      0.5403996    
     57000   301.10614      2895.9148      2417.0758      5312.9905      74098.121      1090.273       0.5606568    
     58000   302.37074      2841.6998      2427.2271      5268.9269      70761.245     -602.10589      0.5870956    
     59000   293.19427      2852.8398      2353.5647      5206.4045      68673.108     -370.66844      0.60494736   
     60000   296.69471      2887.8269      2381.6638      5269.4907      65814.895     -204.42918      0.63121905   
     61000   296.15256      2853.3536      2377.3118      5230.6654      64111.65       1202.0731      0.64798855   
     62000   290.76735      2810.4401      2334.083       5144.5231      62521.415      713.54154      0.66447017   
     63000   294.44733      2815.3357      2363.6234      5178.9591      62053.313     -652.81812      0.66948262   
     64000   301.7279       2813.7296      2422.0668      5235.7964      61661.036     -172.88637      0.67374176   
     65000   305.34955      2792.0634      2451.139       5243.2023      60391.472      469.25609      0.68790532   
     66000   297.9171       2782.9083      2391.4763      5174.3846      58595.944      881.28886      0.70898448   
     67000   299.71412      2768.5699      2405.9016      5174.4714      56967.871      409.84536      0.7292464    
     68000   299.66355      2820.6325      2405.4956      5226.1281      56903.939     -192.09542      0.73006572   
     69000   297.08348      2826.0239      2384.7846      5210.8085      55260.892      1195.0621      0.75177244   
     70000   292.32727      2801.9379      2346.605       5148.5429      54495.848     -957.7504       0.76232624   
     71000   299.42858      2770.2895      2403.6094      5173.899       53700.938     -1386.3928      0.77361061   
     72000   295.55132      2748.5965      2372.4855      5121.082       52174.554      158.18339      0.79624284   
     73000   289.57778      2711.0581      2324.5339      5035.592       53090.019      915.91119      0.78251272   
     74000   300.74281      2791.4201      2414.1592      5205.5793      53344.195     -1553.1764      0.77878418   
     75000   285.82793      2738.9212      2294.4327      5033.3539      51729.282     -480.52026      0.80309669   
     76000   302.79748      2760.6638      2430.6527      5191.3165      50706.911      459.87118      0.81928901   
     77000   279.39463      2753.8435      2242.7905      4996.634       51238.891      264.399        0.81078287   
     78000   295.69982      2800.6826      2373.6775      5174.3601      50471.537      180.87085      0.82310976   
     79000   310.98708      2725.4004      2496.3933      5221.7937      51011.946     -424.5939       0.81438993   
     80000   290.74172      2783.5052      2333.8773      5117.3825      51571.783     -1160.1571      0.80554933   
     81000   301.271        2744.7554      2418.3992      5163.1546      48891.214      690.20896      0.84971536   
     82000   299.80274      2759.3838      2406.613       5165.9968      47188.742      134.80777      0.88037133   
     83000   291.80025      2707.311       2342.3744      5049.6854      45195.315      1717.823       0.91920181   
     84000   300.89523      2747.9894      2415.3828      5163.3721      44439.683      1352.7374      0.93483149   
     85000   298.90277      2663.0257      2399.3886      5062.4143      42377.473     -1035.8465      0.9803231    
     86000   300.49657      2675.5867      2412.1826      5087.7693      40526.874     -1449.3671      1.0250881    
     87000   295.9967       2547.4594      2376.0606      4923.52        38502.765      239.22063      1.0789774    
     88000   297.38828      2574.2696      2387.2313      4961.501       37658.343     -516.16389      1.1031716    
     89000   296.91254      2599.5618      2383.4124      4982.9742      36818.295      319.17016      1.1283416    
     90000   296.55791      2653.3191      2380.5656      5033.8848      37020.704     -217.92188      1.1221725    
     91000   303.05713      2590.7583      2432.737       5023.4953      36175.459      62.98149       1.1483922    
     92000   292.71746      2535.9943      2349.7372      4885.7314      36147.041     -450.38939      1.149295     
     93000   307.58977      2618.4506      2469.122       5087.5726      37124.471     -610.11285      1.1190359    
     94000   298.32995      2489.8414      2394.7904      4884.6318      36651.646     -723.49855      1.133472     
     95000   295.43327      2558.8856      2371.5379      4930.4235      36694.628      633.98852      1.1321443    
     96000   298.85174      2622.3081      2398.979       5021.2871      36750.673     -855.8035       1.1304178    
     97000   302.02284      2550.5034      2424.4345      4974.9379      36192.354      896.02747      1.1478561    
     98000   297.56581      2606.7343      2388.6564      4995.3907      36731.972     -1758.285       1.1309933    
     99000   294.26139      2559.8111      2362.1308      4921.9419      36584.316     -74.816223      1.1355581    
    100000   303.29668      2569.6972      2434.6599      5004.3571      36309.214      277.28708      1.1441618    
Loop time of 2037.1 on 1 procs for 100000 steps with 2694 atoms

Performance: 4.241 ns/day, 5.659 hours/ns, 49.089 timesteps/s, 132.247 katom-step/s
74.7% CPU use with 1 MPI tasks x 1 OpenMP threads

MPI task timing breakdown:
Section |  min time  |  avg time  |  max time  |%varavg| %total
---------------------------------------------------------------
Pair    | 1442.7     | 1442.7     | 1442.7     |   0.0 | 70.82
Bond    | 151.78     | 151.78     | 151.78     |   0.0 |  7.45
Kspace  | 122.18     | 122.18     | 122.18     |   0.0 |  6.00
Neigh   | 83.186     | 83.186     | 83.186     |   0.0 |  4.08
Comm    | 33.209     | 33.209     | 33.209     |   0.0 |  1.63
Output  | 0.04179    | 0.04179    | 0.04179    |   0.0 |  0.00
Modify  | 192.22     | 192.22     | 192.22     |   0.0 |  9.44
Other   |            | 11.8       |            |       |  0.58

Nlocal:           2694 ave        2694 max        2694 min
Histogram: 1 0 0 0 0 0 0 0 0 0
Nghost:          14422 ave       14422 max       14422 min
Histogram: 1 0 0 0 0 0 0 0 0 0
Neighs:    1.16246e+06 ave 1.16246e+06 max 1.16246e+06 min
Histogram: 1 0 0 0 0 0 0 0 0 0

Total # of neighbors = 1162464
Ave neighs/atom = 431.50111
Ave special neighs/atom = 10.703786
Neighbor list builds = 3231
Dangerous builds = 0
write_restart restart.${target_temperature}K
write_restart restart.298.15K
System init for write_restart ...
PPPM initialization ...
  using 12-bit tables for long-range coulomb
  G vector (1/distance) = 0.17606136
  grid = 8 8 8
  stencil order = 5
  estimated absolute RMS force accuracy = 0.017273852
  estimated relative force accuracy = 5.2019691e-05
  using double precision FFTW3
  3d grid and FFT values/proc = 2197 512
Generated 91 of 91 mixed pair_coeff terms from arithmetic mixing rule
unfix production
next target_temperature
jump SELF temperature_loop
write_data final.data
System init for write_data ...
PPPM initialization ...
  using 12-bit tables for long-range coulomb
  G vector (1/distance) = 0.17606136
  grid = 8 8 8
  stencil order = 5
  estimated absolute RMS force accuracy = 0.017273852
  estimated relative force accuracy = 5.2019691e-05
  using double precision FFTW3
  3d grid and FFT values/proc = 2197 512
Generated 91 of 91 mixed pair_coeff terms from arithmetic mixing rule
Total wall time: 0:33:57
