LAMMPS (4 Jul 2026)
OMP_NUM_THREADS environment is not set. Defaulting to 1 thread.
  using 1 OpenMP thread(s) per MPI task
Loaded 1 plugins from D:\LAMMPS 64-bit 4Jul2026-MSMPI\plugins
clear
OMP_NUM_THREADS environment is not set. Defaulting to 1 thread.
  using 1 OpenMP thread(s) per MPI task
Restoring plugin: Hello world command v1.1 by Axel Kohlmeyer (akohlmey@gmail.com)
WARNING: Overriding built-in command style hello from plugin (src/PLUGIN/plugin.cpp:556)
Loaded 1 plugins from D:\LAMMPS 64-bit 4Jul2026-MSMPI\plugins
units real
atom_style full
boundary p p p
include forcefield.production
pair_style lj/cut/coul/long 12.0
pair_modify mix arithmetic
bond_style harmonic
angle_style harmonic
dihedral_style fourier
improper_style cvff
special_bonds amber
kspace_style pppm 1.0e-4
read_data system.data
Reading data file ...
  orthogonal box = (0 0 0) to (90 90 90)
  1 by 1 by 1 MPI processor grid
  reading atoms ...
  2694 atoms
  scanning bonds ...
  3 = max bonds/atom
  scanning angles ...
  6 = max angles/atom
  scanning dihedrals ...
  11 = max dihedrals/atom
  scanning impropers ...
  2 = max impropers/atom
  orthogonal box = (0 0 0) to (90 90 90)
  1 by 1 by 1 MPI processor grid
  reading bonds ...
  2988 bonds
  reading angles ...
  4902 angles
  reading dihedrals ...
  7656 dihedrals
  reading impropers ...
  1548 impropers
Finding 1-2 1-3 1-4 neighbors ...
  special bond factors lj:    0        0        0.5     
  special bond factors coul:  0        0        0.8333333333333334
     4 = max # of 1-2 neighbors
     7 = max # of 1-3 neighbors
    14 = max # of 1-4 neighbors
    16 = max # of special neighbors
  special bonds CPU = 0.003 seconds
  read_data CPU = 0.257 seconds
thermo 1
thermo_style custom step atoms temp pe ke etotal vol press
run 0
WARNING: No fixes with time integration, atoms won't move
For more information see https://docs.lammps.org/err0028 (src/verlet.cpp:60)
PPPM initialization ...
WARNING: System is not charge neutral, net charge = -6.59172e-05
For more information see https://docs.lammps.org/err0029 (src/kspace.cpp:329)
  using 12-bit tables for long-range coulomb
  G vector (1/distance) = 0.12845711
  grid = 12 12 12
  stencil order = 5
  estimated absolute RMS force accuracy = 0.031089538
  estimated relative force accuracy = 9.3625222e-05
  using double precision FFTW3
  3d grid and FFT values/proc = 4913 1728
Generated 91 of 91 mixed pair_coeff terms from arithmetic mixing rule
Neighbor list info ...
  update: every = 1 steps, delay = 0 steps, check = yes
  max neighbors/atom: 2000, page size: 100000
  master list distance cutoff = 14
  ghost atom cutoff = 14
  binsize = 7, bins = 13 13 13
  1 neighbor lists, perpetual/occasional/extra = 1 0 0
  (1) pair lj/cut/coul/long, perpetual
      attributes: half, newton on
      pair build: half/bin/newton
      stencil: half/bin/3d
      bin: standard
Per MPI rank memory allocation (min/avg/max) = 15.42 | 15.42 | 15.42 Mbytes
   Step        Atoms         Temp          PotEng         KinEng         TotEng         Volume         Press     
         0        2694   0              2300.5365      0              2300.5365      729000        -617.70645    
Loop time of 5e-06 on 1 procs for 0 steps with 2694 atoms

0.0% CPU use with 1 MPI tasks x 1 OpenMP threads

MPI task timing breakdown:
Section |  min time  |  avg time  |  max time  |%varavg| %total
---------------------------------------------------------------
Pair    | 0          | 0          | 0          |   0.0 |  0.00
Bond    | 0          | 0          | 0          |   0.0 |  0.00
Kspace  | 0          | 0          | 0          |   0.0 |  0.00
Neigh   | 0          | 0          | 0          |   0.0 |  0.00
Comm    | 0          | 0          | 0          |   0.0 |  0.00
Output  | 0          | 0          | 0          |   0.0 |  0.00
Modify  | 0          | 0          | 0          |   0.0 |  0.00
Other   |            | 5e-06      |            |       |100.00

Nlocal:           2694 ave        2694 max        2694 min
Histogram: 1 0 0 0 0 0 0 0 0 0
Nghost:           6670 ave        6670 max        6670 min
Histogram: 1 0 0 0 0 0 0 0 0 0
Neighs:         330614 ave      330614 max      330614 min
Histogram: 1 0 0 0 0 0 0 0 0 0

Total # of neighbors = 330614
Ave neighs/atom = 122.72235
Ave special neighs/atom = 10.703786
Neighbor list builds = 0
Dangerous builds = 0
Total wall time: 0:00:00
