 DBCSR| CPU Multiplication driver                                           BLAS (U)
 DBCSR| Multrec recursion limit                                              512 (U)
 DBCSR| Multiplication stack size                                           1000 (D)
 DBCSR| Maximum elements for images                                    UNLIMITED (U)
 DBCSR| Multiplicative factor virtual images                                   1 (U)
 DBCSR| Use multiplication densification                                       T (D)
 DBCSR| Multiplication size stacks                                             3 (U)
 DBCSR| Use memory pool for CPU allocation                                     F (U)
 DBCSR| Number of 3D layers                                               SINGLE (U)
 DBCSR| Use MPI memory allocation                                              F (U)
 DBCSR| Use RMA algorithm                                                      F (U)
 DBCSR| Use Communication thread                                               T (U)
 DBCSR| Communication thread load                                             68 (D)
 DBCSR| MPI: My process id                                                     0
 DBCSR| MPI: Number of processes                                               1
 DBCSR| OMP: Current number of threads                                         6
 DBCSR| OMP: Max number of threads                                             6
 DBCSR| Split modifier for TAS multiplication algorithm                  1.0E+00 (U)


  **** **** ******  **  PROGRAM STARTED AT               2026-08-26 17:43:12.572
 ***** ** ***  *** **   PROGRAM STARTED ON                                  asus
 **    ****   ******    PROGRAM STARTED BY                                  root
 ***** **    ** ** **   PROGRAM PROCESS ID                                   296
  **** **  *******  **  PROGRAM STARTED IN /mnt/e/Adhesive-AI-Lab/work/cp2k_smok
                                           e

 CP2K| version string:                                       CP2K version 2026.2
 CP2K| source code revision number:                                      f2f8b68
 CP2K| cp2kflags: omp libint fftw3 libxc elpa parallel scalapack mpi_f08 cosma l
 CP2K|            ibxs libxsmm plumed2 spglib sirius libtorch hdf5 trexio
 CP2K| is freely available from                            https://www.cp2k.org/
 CP2K| Program compiled at                                   2026-08-11 12:20:51
 CP2K| Program compiled on                                                      
 CP2K| Program compiled for                                               x86_64
 CP2K| Data directory path                             /opt/cp2k/share/cp2k/data
 CP2K| Input file name                                                    h2.inp

 GLOBAL| Force Environment number                                              1
 GLOBAL| Basis set file name                                        BASIS_MOLOPT
 GLOBAL| Potential file name                                      GTH_POTENTIALS
 GLOBAL| MM Potential file name                                     MM_POTENTIAL
 GLOBAL| Coordinate file name                                      __STD_INPUT__
 GLOBAL| Method name                                                        CP2K
 GLOBAL| Project name                                                   h2_smoke
 GLOBAL| Run type                                                         ENERGY
 GLOBAL| FFT library                                                       FFTW3
 GLOBAL| Diagonalization library                                            ELPA
 GLOBAL| Cholesky decomposition library                                ScaLAPACK
 GLOBAL| DGEMM library                                                      BLAS
 GLOBAL| Minimum number of eigenvectors for ELPA usage                        64
 GLOBAL| Orthonormality check for eigenvectors                          DISABLED
 GLOBAL| Matrix multiplication library                                     COSMA
 GLOBAL| All-to-all communication in single precision                          F
 GLOBAL| FFTs using library dependent lengths                                  F
 GLOBAL| Grid backend                                                       AUTO
 GLOBAL| Global print level                                                  LOW
 GLOBAL| MPI I/O enabled                                                       T
 GLOBAL| Total number of message passing processes                             1
 GLOBAL| Number of distributed systems (nodes)                                 1
 GLOBAL| Number of threads for this process                                    6
 GLOBAL| This output is from process                                           0
 GLOBAL| OpenMP stack size per thread (OMP_STACKSIZE)                    default
 GLOBAL| CPU model name                 Intel(R) Core(TM) i5-9400F CPU @ 2.90GHz
 GLOBAL| CPUID                                                              1002

 MEMORY| system memory details [Kb]
 MEMORY|                        rank 0           min           max       average
 MEMORY| MemTotal              8097908       8097908       8097908       8097908
 MEMORY| MemFree               6373356       6373356       6373356       6373356
 MEMORY| Buffers                 53104         53104         53104         53104
 MEMORY| Cached                1058416       1058416       1058416       1058416
 MEMORY| Slab                    66088         66088         66088         66088
 MEMORY| SReclaimable            21796         21796         21796         21796
 MEMORY| MemLikelyFree         7506672       7506672       7506672       7506672


 GENERATE|  Preliminary Number of Bonds generated:                             0
 GENERATE|  Achieved consistency in connectivity generation.

 *******************************************************************************
 *******************************************************************************
 **                                                                           **
 **     #####                         ##              ##                      **
 **    ##   ##            ##          ##              ##                      **
 **   ##     ##                       ##            ######                    **
 **   ##     ##  ##   ##  ##   #####  ##  ##   ####   ##    #####    #####    **
 **   ##     ##  ##   ##  ##  ##      ## ##   ##      ##   ##   ##  ##   ##   **
 **   ##  ## ##  ##   ##  ##  ##      ####     ###    ##   ######   ######    **
 **    ##  ###   ##   ##  ##  ##      ## ##      ##   ##   ##       ##        **
 **     #######   #####   ##   #####  ##  ##  ####    ##    #####   ##        **
 **           ##                                                    ##        **
 **                                                                           **
 **                                                ... make the atoms dance   **
 **                                                                           **
 **            Copyright (C) by CP2K developers group (2000-2026)             **
 **                      J. Chem. Phys. 152, 194103 (2020)                    **
 **                                                                           **
 *******************************************************************************


 TOTAL NUMBERS AND MAXIMUM NUMBERS

  Total number of            - Atomic kinds:                                   1
                             - Atoms:                                          2
                             - Shell sets:                                     2
                             - Shells:                                         6
                             - Primitive Cartesian functions:                 14
                             - Cartesian basis functions:                     10
                             - Spherical basis functions:                     10

  Maximum angular momentum of- Orbital basis functions:                        1
                             - Local part of the GTH pseudopotential:          2


 SCF PARAMETERS         Density guess:                                    ATOMIC
                        --------------------------------------------------------
                        max_scf:                                              50
                        max_scf_history:                                       0
                        max_diis:                                              4
                        --------------------------------------------------------
                        eps_scf:                                        1.00E-06
                        eps_scf_history:                                0.00E+00
                        eps_diis:                                       1.00E-01
                        eps_eigval:                                     1.00E-05
                        --------------------------------------------------------
                        level_shift [a.u.]:                             0.000000
                        --------------------------------------------------------
                        Mixing method:                           DIRECT_P_MIXING
                        --------------------------------------------------------
                        No outer SCF

 *** WARNING in pw_env_methods.F:755 :: The selected periodicities in the ***
 *** sections &CELL and &POISSON do not match                             ***


 Extrapolation method: initial_guess

 Number of electrons:                                                          2
 Number of occupied orbitals:                                                  1
 Number of molecular orbitals:                                                 1

 Number of orbital functions:                                                 10
 Number of independent orbital functions:                                     10


 SCF WAVEFUNCTION OPTIMIZATION

  Step     Update method      Time    Convergence         Total energy    Change
  ------------------------------------------------------------------------------
     1 P_Mix/Diag. 0.40E+00    1.1     0.49668673        -0.9713782110 -9.71E-01
     2 P_Mix/Diag. 0.40E+00    1.2     0.28147465        -1.0533596522 -8.20E-02
     3 P_Mix/Diag. 0.40E+00    1.3     0.15945673        -1.0994249524 -4.61E-02
     4 P_Mix/Diag. 0.40E+00    1.0     0.09082840        -1.1262761709 -2.69E-02
     5 DIIS/Diag.  0.74E-02    1.1     0.04983140        -1.1422024700 -1.59E-02
     6 DIIS/Diag.  0.32E-03    0.9     0.00068346        -1.1659581073 -2.38E-02
     7 DIIS/Diag.  0.26E-02    1.4     0.00086238        -1.1659562903  1.82E-06
     8 DIIS/Diag.  0.99E-03    0.9     0.00020223        -1.1659578815 -1.59E-06
     9 DIIS/Diag.  0.17E-03    1.6     0.00004275        -1.1659581300 -2.48E-07
    10 DIIS/Diag.  0.44E-07    0.9     0.00000002        -1.1659581379 -7.86E-09

  *** SCF run converged in    10 steps ***


  Electronic density on regular grids:         -2.0000000028       -0.0000000028
  Core density on regular grids:                1.9999999999       -0.0000000001
  Total charge density on r-space grids:       -0.0000000029
  Total charge density g-space grids:          -0.0000000029

  Overlap energy of the core charge distribution:               0.00000054708208
  Self energy of the core charge distribution:                 -2.82094791773878
  Core Hamiltonian energy:                                      0.98206538540694
  Hartree energy:                                               1.36488436213570
  Exchange-correlation energy:                                 -0.69196051475634

  Total energy:                                                -1.16595813787040

 ENERGY| Total FORCE_EVAL ( QS ) energy [hartree]             -1.165958137870400

 -------------------------------------------------------------------------------
 -                                                                             -
 -                                DBCSR STATISTICS                             -
 -                                                                             -
 -------------------------------------------------------------------------------
 COUNTER                                    TOTAL       BLAS       SMM       ACC
 flops     5 x     5 x     1                 1500     100.0%      0.0%      0.0%     
 flops inhomo. stacks                           0       0.0%      0.0%      0.0%
 flops total                         1.500000E+03     100.0%      0.0%      0.0%
 flops max/rank                      1.500000E+03     100.0%      0.0%      0.0%
 matmuls inhomo. stacks                         0       0.0%      0.0%      0.0%
 matmuls total                                 30     100.0%      0.0%      0.0%
 number of processed stacks                    20     100.0%      0.0%      0.0%
 average stack size                                     1.5       0.0       0.0
 marketing flops                     2.000000E+03
 -------------------------------------------------------------------------------
 # multiplications                             10
 max memory usage/rank              25.074762E+09
 # max total images/rank                        1
 # max 3D layers                                1
 # MPI messages exchanged                       0
 -------------------------------------------------------------------------------
 -                                                                             -
 -                      DBCSR MESSAGE PASSING PERFORMANCE                      -
 -                                                                             -
 -------------------------------------------------------------------------------
 ROUTINE             CALLS      AVE VOLUME [Bytes]
 MP_Bcast                2                     12.
 MP_Allreduce           71                     12.
 MP_Alltoall           330                    478.
 MP_ISend               40                     40.
 MP_IRecv               40                     40.
 -------------------------------------------------------------------------------

 -------------------------------------------------------------------------------
 -                                                                             -
 -                                GRID STATISTICS                              -
 -                                                                             -
 -------------------------------------------------------------------------------
 LP    KERNEL             BACKEND                              COUNT     PERCENT
 2     collocate ortho    CPU                                   1617      52.35%
 2     integrate ortho    CPU                                   1470      47.59%
 0     collocate general  CPU                                      2       0.06%
 -------------------------------------------------------------------------------

 -------------------------------------------------------------------------------
 -                                                                             -
 -                          OFFLOAD MEMPOOL STATISTICS                         -
 -                                                                             -
 -------------------------------------------------------------------------------
 Memory consumption                Number of allocations  Used [MiB]  Size [MiB]
 Host                                                  6          12   132088948
 -------------------------------------------------------------------------------

 MEMORY| Estimated peak process memory [MiB]                                 787

 -------------------------------------------------------------------------------
 -                                                                             -
 -                         MESSAGE PASSING PERFORMANCE                         -
 -                                                                             -
 -------------------------------------------------------------------------------

 ROUTINE             CALLS      AVE VOLUME [Bytes]
 MP_Group                4
 MP_Bcast               20                     42.
 MP_Allreduce          137                      8.
 MP_Sync                14
 MP_comm_split          10
 -------------------------------------------------------------------------------


 -------------------------------------------------------------------------------
 -                                                                             -
 -                           R E F E R E N C E S                               -
 -                                                                             -
 -------------------------------------------------------------------------------
 
 CP2K version 2026.2, the CP2K developers group (2026).
 CP2K is freely available from https://www.cp2k.org/ .
 
 M. Iannuzzi, J. Wilhelm, F. Stein, A. Bussy, H. Elgabarty, D. Golze, A. Hehn, 
 M. Graml, S. Marek, B. Sertcan Gökmen, C. Schran, H. Forbert, R. Z. 
 Khaliullin, A. Kozhevnikov, M. Taillefumier, R. Meli, V. V. Rybkin, M. Brehm, 
 R. Schade, O. Schütt, J. V. Pototschnig, H. Mirhosseini, A. Knüpfer, D. Marx, 
 M. Krack, J. Hutter, T. D. Kühne.
 J. Phys. Chem. B 130, 1237-1310 (2026).
 The CP2K Program Package Made Simple.
 https://doi.org/10.1021/acs.jpcb.5c05851

 T. D. Kühne, M. Iannuzzi, M. Del Ben, V. V. Rybkin, P. Seewald, F. Stein, T. 
 Laino, R. Z. Khaliullin, O. Schütt, F. Schiffmann, D. Golze, J. Wilhelm, S. 
 Chulkov, M. H. Bani-Hashemian, V. Weber, U. Borstnik, M. Taillefumier, A. S. 
 Jakobovits, A. Lazzaro, H. Pabst, T. Müller, R. Schade, M. Guidon, S. 
 Andermatt, N. Holmberg, G. K. Schenter, A. Hehn, A. Bussy, F. Belleflamme, G. 
 Tabacchi, A. Glöß, M. Lass, I. Bethune, C. J. Mundy, C. Plessl, M. Watkins, 
 J. VandeVondele, M. Krack, J. Hutter.
 J. Chem. Phys. 152, 194103 (2020).
 CP2K: An electronic structure and molecular dynamics software package - 
 Quickstep: Efficient and accurate electronic structure calculations.
 https://doi.org/10.1063/5.0007045

 O. Schuett, P. Messmer, J. Hutter, J. VandeVondele.
 Electronic Structure Calculations on Graphics Processing Units, 173-190 (2016).
 GPU-Accelerated Sparse Matrix-Matrix Multiplication for Linear Scaling Density 
 Functional Theory.
 https://doi.org/10.1002/9781118670712.ch8

 A. Heinecke, G. Henry, M. Hutchinson, H. Pabst.
 Proceedings of Intl. Supercomputing Conference, 981-991 (2016).
 LIBXSMM: Accelerating Small Matrix Multiplications by Runtime Code Generation.
 https://doi.org/10.1109/SC.2016.83

 U. Borstnik, J. VandeVondele, V. Weber, J. Hutter.
 Parallel Comput. 40, 47-58 (2014).
 Sparse matrix multiplication: The distributed block-compressed sparse row 
 library.
 https://doi.org/10.1016/j.parco.2014.03.012

 A. Marek, V. Blum, R. Johanni, V. Havu, B. Lang, T. Auckenthaler, A. Heinecke, 
 H. Bungartz, H. Lederer.
 J. Phys. Condens. Matter 26, 213201 (2014).
 The ELPA library: scalable parallel eigenvalue solutions for electronic 
 structure theory and computational science.
 https://doi.org/10.1088/0953-8984/26/21/213201

 J. VandeVondele, J. Hutter.
 J. Chem. Phys. 127, 114105 (2007).
 Gaussian basis sets for accurate calculations on molecular systems in gas and 
 condensed phases.
 https://doi.org/10.1063/1.2770708

 J. VandeVondele, M. Krack, F. Mohamed, M. Parrinello, T. Chassaing, J. Hutter.
 Comput. Phys. Commun. 167, 103-128 (2005).
 QUICKSTEP: Fast and accurate density functional calculations using a mixed 
 Gaussian and plane waves approach.
 https://doi.org/10.1016/j.cpc.2004.12.014

 M. Krack.
 Theor. Chem. Acc. 114, 145-152 (2005).
 Pseudopotentials for H to Kr optimized for gradient-corrected 
 exchange-correlation functionals.
 https://doi.org/10.1007/s00214-005-0655-y

 M. Frigo, S. G. Johnson.
 Proc. IEEE 93, 216-231 (2005).
 The design and implementation of FFTW3.
 https://doi.org/10.1109/JPROC.2004.840301

 C. Hartwigsen, S. Goedecker, J. Hutter.
 Phys. Rev. B 58, 3641-3662 (1998).
 Relativistic separable dual-space Gaussian pseudopotentials from H to Rn.
 https://doi.org/10.1103/PhysRevB.58.3641

 G. Lippert, J. Hutter, M. Parrinello.
 Mol. Phys. 92, 477-487 (1997).
 A hybrid Gaussian and plane wave density functional scheme.
 https://doi.org/10.1080/002689797170220

 S. Goedecker, M. Teter, J. Hutter.
 Phys. Rev. B 54, 1703-1710 (1996).
 Separable dual-space Gaussian pseudopotentials.
 https://doi.org/10.1103/PhysRevB.54.1703

 J. P. Perdew, K. Burke, M. Ernzerhof.
 Phys. Rev. Lett. 77, 3865-3868 (1996).
 Generalized gradient approximation made simple.
 https://doi.org/10.1103/PhysRevLett.77.3865


 -------------------------------------------------------------------------------
 -                                                                             -
 -                                T I M I N G                                  -
 -                                                                             -
 -------------------------------------------------------------------------------
 SUBROUTINE                       CALLS  ASD         SELF TIME        TOTAL TIME
                                MAXIMUM       AVERAGE  MAXIMUM  AVERAGE  MAXIMUM
 CP2K                                 1  1.0    0.048    0.048   12.431   12.431
 qs_energies                          1  2.0    0.000    0.000   12.044   12.044
 scf_env_do_scf                       1  3.0    0.000    0.000   11.512   11.512
 scf_env_do_scf_inner_loop           10  4.0    0.018    0.018   11.512   11.512
 qs_ks_update_qs_env                 10  5.0    0.000    0.000    9.275    9.275
 rebuild_ks_matrix                   10  6.0    0.000    0.000    9.275    9.275
 qs_ks_build_kohn_sham_matrix        10  7.0    0.001    0.001    9.275    9.275
 fft_wrap_pw1pw2                    176 10.2    0.003    0.003    6.694    6.694
 qs_vxc_create                       10  8.0    0.000    0.000    6.554    6.554
 xc_vxc_pw_create                    10  9.0    0.249    0.249    6.554    6.554
 fft_wrap_pw1pw2_140                113 11.6    0.181    0.181    6.134    6.134
 fft3d_s                            177 12.1    4.360    4.360    4.365    4.365
 xc_pw_derive                        60 11.0    0.001    0.001    4.347    4.347
 xc_rho_set_and_dset_create          10 10.0    0.150    0.150    3.343    3.343
 xc_pw_divergence                    10 10.0    0.000    0.000    2.781    2.781
 qs_rho_update_rho_low               11  5.0    0.000    0.000    1.963    1.963
 calculate_rho_elec                  11  6.0    0.093    0.093    1.963    1.963
 density_rs2pw                       11  7.0    0.001    0.001    1.476    1.476
 sum_up_and_integrate                10  8.0    0.000    0.000    1.146    1.146
 integrate_v_rspace                  10  9.0    0.022    0.022    1.080    1.080
 pw_derive                           90 11.3    1.010    1.010    1.010    1.010
 potential_pw2rs                     10 10.0    0.002    0.002    0.944    0.944
 pw_scatter_s                        91 12.6    0.914    0.914    0.914    0.914
 pw_poisson_solve                    10  8.0    0.000    0.000    0.885    0.885
 xc_functional_eval                  10 11.0    0.000    0.000    0.770    0.770
 pbe_lda_eval                        10 12.0    0.770    0.770    0.770    0.770
 pw_copy                            150 10.5    0.738    0.738    0.738    0.738
 pw_gather_s                         85 11.7    0.622    0.622    0.622    0.622
 qs_scf_new_mos                      10  5.0    0.000    0.000    0.566    0.566
 pw_poisson_set                      11  8.7    0.000    0.000    0.548    0.548
 pw_axpy                            104  9.2    0.413    0.413    0.413    0.413
 grid_collocate_task_list            11  7.0    0.394    0.394    0.394    0.394
 init_scf_run                         1  3.0    0.000    0.000    0.383    0.383
 scf_env_initial_rho_setup            1  4.0    0.001    0.001    0.374    0.374
 calculate_dm_sparse                 10  6.0    0.000    0.000    0.348    0.348
 cp_dbcsr_plus_fm_fm_t               10  7.0    0.000    0.000    0.348    0.348
 pw_copy_from_array                  91 12.6    0.325    0.325    0.325    0.325
 qs_init_subsys                       1  2.0    0.003    0.003    0.296    0.296
 qs_env_setup                         1  3.0    0.000    0.000    0.288    0.288
 qs_env_rebuild_pw_env                2  3.5    0.000    0.000    0.288    0.288
 pw_env_rebuild                       1  5.0    0.001    0.001    0.288    0.288
 pw_grid_setup                        4  6.0    0.000    0.000    0.286    0.286
 pw_grid_setup_internal               4  7.0    0.003    0.003    0.286    0.286
 dbcsr_multiply_generic              10  8.0    0.006    0.006    0.283    0.283
 pw_copy_to_array                    85 11.7    0.280    0.280    0.280    0.280
 fft_wrap_pw1pw2_50                  21 10.4    0.004    0.004    0.255    0.255
 -------------------------------------------------------------------------------

 The number of warnings for this run is : 1
 
 -------------------------------------------------------------------------------
  **** **** ******  **  PROGRAM ENDED AT                 2026-08-26 17:43:25.656
 ***** ** ***  *** **   PROGRAM RAN ON                                      asus
 **    ****   ******    PROGRAM RAN BY                                      root
 ***** **    ** ** **   PROGRAM PROCESS ID                                   296
  **** **  *******  **  PROGRAM STOPPED IN /mnt/e/Adhesive-AI-Lab/work/cp2k_smok
                                           e
