Ce O 
 1.0000000000000000
    15.3046191720016331    0.0000000000000000    0.0000000000000000
     7.6523095860008175   13.2541889981997745    0.0000000000000000
     0.0000000000000000    0.0000000000000000   43.8101057664626623
 Ce  O  
  48  95
Selective dynamics
Direct
  0.0000000000000001  0.0000000000000000  0.4286912859047109   F   F   F
  0.0000000000000000  0.2500000000000000  0.4286912859047109   F   F   F
  0.2500000000000001  0.4999999999999999  0.4286912859047109   F   F   F
  0.2500000000000000  0.2500000000000000  0.4286912859047109   F   F   F
  0.3333333333333334  0.3333333333333333  0.5000000000000000   T   T   T
  0.3333333333333334  0.0833333333333333  0.5000000000000000   T   T   T
  0.0833333333333334  0.3333333333333333  0.5000000000000000   T   T   T
  0.0833333333333334  0.0833333333333333  0.5000000000000000   T   T   T
  0.1666666666666667  0.1666666666666665  0.5713087140952892   T   T   T
  0.1666666666666665  0.4166666666666666  0.5713087140952892   T   T   T
  0.4166666666666667  0.1666666666666666  0.5713087140952892   T   T   T
  0.4166666666666667  0.4166666666666666  0.5713087140952893   T   T   T
  0.0000000000000001  0.5000000000000000  0.4286912859047109   F   F   F
  0.0000000000000000  0.7500000000000000  0.4286912859047109   F   F   F
  0.2500000000000001  0.9999999999999999  0.4286912859047109   F   F   F
  0.2500000000000000  0.7500000000000000  0.4286912859047109   F   F   F
  0.3333333333333334  0.8333333333333333  0.5000000000000000   T   T   T
  0.3333333333333334  0.5833333333333333  0.5000000000000000   T   T   T
  0.0833333333333334  0.8333333333333333  0.5000000000000000   T   T   T
  0.0833333333333334  0.5833333333333333  0.5000000000000000   T   T   T
  0.1666666666666667  0.6666666666666665  0.5713087140952892   T   T   T
  0.1666666666666665  0.9166666666666666  0.5713087140952892   T   T   T
  0.4166666666666666  0.6666666666666666  0.5713087140952892   T   T   T
  0.4166666666666667  0.9166666666666666  0.5713087140952893   T   T   T
  0.5000000000000001  0.0000000000000000  0.4286912859047109   F   F   F
  0.5000000000000000  0.2500000000000000  0.4286912859047109   F   F   F
  0.7500000000000000  0.4999999999999999  0.4286912859047109   F   F   F
  0.7500000000000001  0.2500000000000000  0.4286912859047109   F   F   F
  0.8333333333333334  0.3333333333333333  0.5000000000000000   T   T   T
  0.8333333333333335  0.0833333333333333  0.5000000000000000   T   T   T
  0.5833333333333335  0.3333333333333333  0.5000000000000000   T   T   T
  0.5833333333333334  0.0833333333333333  0.5000000000000000   T   T   T
  0.6666666666666667  0.1666666666666665  0.5713087140952892   T   T   T
  0.6666666666666665  0.4166666666666666  0.5713087140952892   T   T   T
  0.9166666666666666  0.1666666666666666  0.5713087140952892   T   T   T
  0.9166666666666665  0.4166666666666666  0.5713087140952893   T   T   T
  0.5000000000000001  0.5000000000000000  0.4286912859047109   F   F   F
  0.5000000000000001  0.7500000000000000  0.4286912859047109   F   F   F
  0.7500000000000001  0.9999999999999999  0.4286912859047109   F   F   F
  0.7500000000000002  0.7500000000000000  0.4286912859047109   F   F   F
  0.8333333333333334  0.8333333333333333  0.5000000000000000   T   T   T
  0.8333333333333336  0.5833333333333333  0.5000000000000000   T   T   T
  0.5833333333333335  0.8333333333333333  0.5000000000000000   T   T   T
  0.5833333333333335  0.5833333333333333  0.5000000000000000   T   T   T
  0.6666666666666667  0.6666666666666665  0.5713087140952892   T   T   T
  0.6666666666666666  0.9166666666666666  0.5713087140952892   T   T   T
  0.9166666666666666  0.6666666666666666  0.5713087140952892   T   T   T
  0.9166666666666670  0.9166666666666666  0.5713087140952893   T   T   T
  0.1666666666666667  0.1666666666666667  0.4108641073808886   F   F   F
  0.3333333333333334  0.3333333333333333  0.4465184644285331   F   F   F
  0.1666666666666667  0.4166666666666666  0.4108641073808886   F   F   F
  0.3333333333333333  0.0833333333333333  0.4465184644285332   F   F   F
  0.4166666666666669  0.1666666666666667  0.4108641073808886   F   F   F
  0.0833333333333335  0.3333333333333333  0.4465184644285332   F   F   F
  0.4166666666666668  0.4166666666666666  0.4108641073808886   F   F   F
  0.0833333333333334  0.0833333333333333  0.4465184644285332   F   F   F
  0.0000000000000000  0.4999999999999999  0.4821728214761777   T   T   T
  0.1666666666666666  0.1666666666666666  0.5178271785238222   T   T   T
  0.0000000000000000  0.2500000000000000  0.4821728214761777   T   T   T
  0.1666666666666666  0.4166666666666666  0.5178271785238223   T   T   T
  0.2500000000000001  0.0000000000000000  0.4821728214761777   T   T   T
  0.4166666666666667  0.1666666666666665  0.5178271785238223   T   T   T
  0.2500000000000002  0.2500000000000000  0.4821728214761777   T   T   T
  0.4166666666666667  0.4166666666666666  0.5178271785238223   T   T   T
  0.3333333333333334  0.3333333333333333  0.5534815355714668   T   T   T
  0.3333333333333334  0.0833333333333333  0.5534815355714668   T   T   T
  0.4999999999999999  0.2499999999999999  0.5891358926191115   T   T   T
  0.0833333333333335  0.3333333333333333  0.5534815355714668   T   T   T
  0.2499999999999998  0.4999999999999999  0.5891358926191115   T   T   T
  0.0833333333333337  0.0833333333333332  0.5534815355714668   T   T   T
  0.2500000000000000  0.2499999999999999  0.5891358926191115   T   T   T
  0.1666666666666668  0.6666666666666666  0.4108641073808886   F   F   F
  0.3333333333333335  0.8333333333333333  0.4465184644285331   F   F   F
  0.1666666666666668  0.9166666666666666  0.4108641073808886   F   F   F
  0.3333333333333333  0.5833333333333334  0.4465184644285332   F   F   F
  0.4166666666666669  0.6666666666666667  0.4108641073808886   F   F   F
  0.0833333333333335  0.8333333333333333  0.4465184644285332   F   F   F
  0.4166666666666669  0.9166666666666666  0.4108641073808886   F   F   F
  0.0833333333333334  0.5833333333333333  0.4465184644285332   F   F   F
  0.0000000000000000  0.9999999999999999  0.4821728214761777   T   T   T
  0.1666666666666667  0.6666666666666666  0.5178271785238222   T   T   T
  0.0000000000000000  0.7500000000000000  0.4821728214761777   T   T   T
  0.1666666666666667  0.9166666666666666  0.5178271785238223   T   T   T
  0.2500000000000001  0.5000000000000000  0.4821728214761777   T   T   T
  0.4166666666666667  0.6666666666666665  0.5178271785238223   T   T   T
  0.2500000000000001  0.7500000000000000  0.4821728214761777   T   T   T
  0.4166666666666667  0.9166666666666666  0.5178271785238223   T   T   T
  0.3333333333333334  0.8333333333333333  0.5534815355714668   T   T   T
  0.0000000000000002  0.9999999999999999  0.5891358926191115   T   T   T
  0.3333333333333334  0.5833333333333333  0.5534815355714668   T   T   T
  0.5000000000000000  0.7499999999999999  0.5891358926191115   T   T   T
  0.0833333333333335  0.8333333333333333  0.5534815355714668   T   T   T
  0.2499999999999998  0.9999999999999999  0.5891358926191115   T   T   T
  0.0833333333333336  0.5833333333333333  0.5534815355714668   T   T   T
  0.2500000000000001  0.7499999999999999  0.5891358926191115   T   T   T
  0.6666666666666667  0.1666666666666667  0.4108641073808886   F   F   F
  0.8333333333333335  0.3333333333333333  0.4465184644285331   F   F   F
  0.6666666666666667  0.4166666666666666  0.4108641073808886   F   F   F
  0.8333333333333334  0.0833333333333333  0.4465184644285332   F   F   F
  0.9166666666666670  0.1666666666666667  0.4108641073808886   F   F   F
  0.5833333333333335  0.3333333333333333  0.4465184644285332   F   F   F
  0.9166666666666667  0.4166666666666666  0.4108641073808886   F   F   F
  0.5833333333333334  0.0833333333333333  0.4465184644285332   F   F   F
  0.4999999999999999  0.4999999999999999  0.4821728214761777   T   T   T
  0.6666666666666666  0.1666666666666666  0.5178271785238222   T   T   T
  0.5000000000000000  0.2500000000000000  0.4821728214761777   T   T   T
  0.6666666666666666  0.4166666666666666  0.5178271785238223   T   T   T
  0.7500000000000002  0.0000000000000000  0.4821728214761777   T   T   T
  0.9166666666666667  0.1666666666666665  0.5178271785238223   T   T   T
  0.7500000000000001  0.2500000000000000  0.4821728214761777   T   T   T
  0.9166666666666665  0.4166666666666666  0.5178271785238223   T   T   T
  0.8333333333333334  0.3333333333333333  0.5534815355714668   T   T   T
  0.5000000000000002  0.4999999999999999  0.5891358926191115   T   T   T
  0.8333333333333334  0.0833333333333333  0.5534815355714668   T   T   T
  0.9999999999999999  0.2499999999999999  0.5891358926191115   T   T   T
  0.5833333333333335  0.3333333333333333  0.5534815355714668   T   T   T
  0.7499999999999999  0.4999999999999999  0.5891358926191115   T   T   T
  0.5833333333333337  0.0833333333333332  0.5534815355714668   T   T   T
  0.7500000000000000  0.2499999999999999  0.5891358926191115   T   T   T
  0.6666666666666669  0.6666666666666666  0.4108641073808886   F   F   F
  0.8333333333333334  0.8333333333333333  0.4465184644285331   F   F   F
  0.6666666666666669  0.9166666666666666  0.4108641073808886   F   F   F
  0.8333333333333333  0.5833333333333334  0.4465184644285332   F   F   F
  0.9166666666666670  0.6666666666666667  0.4108641073808886   F   F   F
  0.5833333333333335  0.8333333333333333  0.4465184644285332   F   F   F
  0.9166666666666670  0.9166666666666666  0.4108641073808886   F   F   F
  0.5833333333333335  0.5833333333333333  0.4465184644285332   F   F   F
  0.5000000000000000  0.9999999999999999  0.4821728214761777   T   T   T
  0.6666666666666666  0.6666666666666666  0.5178271785238222   T   T   T
  0.5000000000000001  0.7500000000000000  0.4821728214761777   T   T   T
  0.6666666666666666  0.9166666666666666  0.5178271785238223   T   T   T
  0.7500000000000002  0.5000000000000000  0.4821728214761777   T   T   T
  0.9166666666666667  0.6666666666666665  0.5178271785238223   T   T   T
  0.7500000000000002  0.7500000000000000  0.4821728214761777   T   T   T
  0.9166666666666670  0.9166666666666666  0.5178271785238223   T   T   T
  0.8333333333333334  0.8333333333333333  0.5534815355714668   T   T   T
  0.8333333333333334  0.5833333333333333  0.5534815355714668   T   T   T
  1.0000000000000000  0.7499999999999999  0.5891358926191115   T   T   T
  0.5833333333333335  0.8333333333333333  0.5534815355714668   T   T   T
  0.7499999999999999  0.9999999999999999  0.5891358926191115   T   T   T
  0.5833333333333337  0.5833333333333333  0.5534815355714668   T   T   T
  0.7500000000000000  0.7499999999999999  0.5891358926191115   T   T   T
  0.0000000000000002  0.4999999999999999  0.6302223033572003   T   T   T
