Ce O  C  N  H 
 1.0000000000000000
    21.6439999999999984    0.0000000000000000    0.0000000000000000
     0.0000000000000000   16.2329999999999970    0.0000000000000000
     0.0000000000000000    0.0000000000000000   50.8802499999999966
 Ce  O   C   N   H  
 144 296  32   4  38
Selective dynamics
Direct
  0.0000000000000000  0.0000000000000000  0.3537718466399045   F   F   F
  0.1250000000000000  0.1666666666666667  0.3537718466399045   F   F   F
  0.0000000000000000  0.1666666666666667  0.4069457205890302   F   F   F
  0.1250000000000000  0.0000000000000000  0.4069457205890302   F   F   F
  0.0000000000000000  0.0000000000000000  0.4601195945381559   T   T   T
  0.1250000000000000  0.1666666666666667  0.4601195945381559   T   T   T
  0.0000000000000000  0.1666666666666667  0.5132934684872814   T   T   T
  0.1250000000000000  0.0000000000000000  0.5132934684872814   T   T   T
  0.0000000000000000  0.0000000000000000  0.5664673424364071   T   T   T
  0.1250000000000000  0.1666666666666667  0.5664673424364071   T   T   T
  0.0000000000000000  0.1666666666666667  0.6196412163855328   T   T   T
  0.1250000000000000  0.0000000000000000  0.6196412163855328   T   T   T
  0.0000000000000000  0.3333333333333334  0.3537718466399045   F   F   F
  0.1250000000000000  0.5000000000000000  0.3537718466399045   F   F   F
  0.0000000000000000  0.5000000000000000  0.4069457205890302   F   F   F
  0.1250000000000000  0.3333333333333334  0.4069457205890302   F   F   F
  0.0000000000000000  0.3333333333333334  0.4601195945381559   T   T   T
  0.1250000000000000  0.5000000000000000  0.4601195945381559   T   T   T
  0.0000000000000000  0.5000000000000000  0.5132934684872814   T   T   T
  0.1250000000000000  0.3333333333333334  0.5132934684872814   T   T   T
  0.0000000000000000  0.3333333333333334  0.5664673424364071   T   T   T
  0.1250000000000000  0.5000000000000000  0.5664673424364071   T   T   T
  0.0000000000000000  0.5000000000000000  0.6196412163855328   T   T   T
  0.1250000000000000  0.3333333333333334  0.6196412163855328   T   T   T
  0.0000000000000000  0.6666666666666667  0.3537718466399045   F   F   F
  0.1250000000000000  0.8333333333333335  0.3537718466399045   F   F   F
  0.0000000000000000  0.8333333333333335  0.4069457205890302   F   F   F
  0.1250000000000000  0.6666666666666667  0.4069457205890302   F   F   F
  0.0000000000000000  0.6666666666666667  0.4601195945381559   T   T   T
  0.1250000000000000  0.8333333333333335  0.4601195945381559   T   T   T
  0.0000000000000000  0.8333333333333335  0.5132934684872814   T   T   T
  0.1250000000000000  0.6666666666666667  0.5132934684872814   T   T   T
  0.0000000000000000  0.6666666666666667  0.5664673424364071   T   T   T
  0.1250000000000000  0.8333333333333335  0.5664673424364071   T   T   T
  0.0000000000000000  0.8333333333333335  0.6196412163855328   T   T   T
  0.1250000000000000  0.6666666666666667  0.6196412163855328   T   T   T
  0.2500000000000000  0.0000000000000000  0.3537718466399045   F   F   F
  0.3750000000000000  0.1666666666666667  0.3537718466399045   F   F   F
  0.2500000000000000  0.1666666666666667  0.4069457205890302   F   F   F
  0.3750000000000000  0.0000000000000000  0.4069457205890302   F   F   F
  0.2500000000000000  0.0000000000000000  0.4601195945381559   T   T   T
  0.3750000000000000  0.1666666666666667  0.4601195945381559   T   T   T
  0.2500000000000000  0.1666666666666667  0.5132934684872814   T   T   T
  0.3750000000000000  0.0000000000000000  0.5132934684872814   T   T   T
  0.2500000000000000  0.0000000000000000  0.5664673424364071   T   T   T
  0.3750000000000000  0.1666666666666667  0.5664673424364071   T   T   T
  0.2500000000000000  0.1666666666666667  0.6196412163855328   T   T   T
  0.3750000000000000  0.0000000000000000  0.6196412163855328   T   T   T
  0.2500000000000000  0.3333333333333334  0.3537718466399045   F   F   F
  0.3750000000000000  0.5000000000000000  0.3537718466399045   F   F   F
  0.2500000000000000  0.5000000000000000  0.4069457205890302   F   F   F
  0.3750000000000000  0.3333333333333334  0.4069457205890302   F   F   F
  0.2500000000000000  0.3333333333333334  0.4601195945381559   T   T   T
  0.3750000000000000  0.5000000000000000  0.4601195945381559   T   T   T
  0.2500000000000000  0.5000000000000000  0.5132934684872814   T   T   T
  0.3750000000000000  0.3333333333333334  0.5132934684872814   T   T   T
  0.2500000000000000  0.3333333333333334  0.5664673424364071   T   T   T
  0.3750000000000000  0.5000000000000000  0.5664673424364071   T   T   T
  0.2500000000000000  0.5000000000000000  0.6196412163855328   T   T   T
  0.3750000000000000  0.3333333333333334  0.6196412163855328   T   T   T
  0.2500000000000000  0.6666666666666667  0.3537718466399045   F   F   F
  0.3750000000000000  0.8333333333333335  0.3537718466399045   F   F   F
  0.2500000000000000  0.8333333333333335  0.4069457205890302   F   F   F
  0.3750000000000000  0.6666666666666667  0.4069457205890302   F   F   F
  0.2500000000000000  0.6666666666666667  0.4601195945381559   T   T   T
  0.3750000000000000  0.8333333333333335  0.4601195945381559   T   T   T
  0.2500000000000000  0.8333333333333335  0.5132934684872814   T   T   T
  0.3750000000000000  0.6666666666666667  0.5132934684872814   T   T   T
  0.2500000000000000  0.6666666666666667  0.5664673424364071   T   T   T
  0.3750000000000000  0.8333333333333335  0.5664673424364071   T   T   T
  0.2500000000000000  0.8333333333333335  0.6196412163855328   T   T   T
  0.3750000000000000  0.6666666666666667  0.6196412163855328   T   T   T
  0.5000000000000000  0.0000000000000000  0.3537718466399045   F   F   F
  0.6250000000000001  0.1666666666666667  0.3537718466399045   F   F   F
  0.5000000000000000  0.1666666666666667  0.4069457205890302   F   F   F
  0.6250000000000001  0.0000000000000000  0.4069457205890302   F   F   F
  0.5000000000000000  0.0000000000000000  0.4601195945381559   T   T   T
  0.6250000000000001  0.1666666666666667  0.4601195945381559   T   T   T
  0.5000000000000000  0.1666666666666667  0.5132934684872814   T   T   T
  0.6250000000000001  0.0000000000000000  0.5132934684872814   T   T   T
  0.5000000000000000  0.0000000000000000  0.5664673424364071   T   T   T
  0.6250000000000001  0.1666666666666667  0.5664673424364071   T   T   T
  0.5000000000000000  0.1666666666666667  0.6196412163855328   T   T   T
  0.6250000000000001  0.0000000000000000  0.6196412163855328   T   T   T
  0.5000000000000000  0.3333333333333334  0.3537718466399045   F   F   F
  0.6250000000000001  0.5000000000000000  0.3537718466399045   F   F   F
  0.5000000000000000  0.5000000000000000  0.4069457205890302   F   F   F
  0.6250000000000001  0.3333333333333334  0.4069457205890302   F   F   F
  0.5000000000000000  0.3333333333333334  0.4601195945381559   T   T   T
  0.6250000000000001  0.5000000000000000  0.4601195945381559   T   T   T
  0.5000000000000000  0.5000000000000000  0.5132934684872814   T   T   T
  0.6250000000000001  0.3333333333333334  0.5132934684872814   T   T   T
  0.5000000000000000  0.3333333333333334  0.5664673424364071   T   T   T
  0.6250000000000001  0.5000000000000000  0.5664673424364071   T   T   T
  0.5000000000000000  0.5000000000000000  0.6196412163855328   T   T   T
  0.6250000000000001  0.3333333333333334  0.6196412163855328   T   T   T
  0.5000000000000000  0.6666666666666667  0.3537718466399045   F   F   F
  0.6250000000000001  0.8333333333333335  0.3537718466399045   F   F   F
  0.5000000000000000  0.8333333333333335  0.4069457205890302   F   F   F
  0.6250000000000001  0.6666666666666667  0.4069457205890302   F   F   F
  0.5000000000000000  0.6666666666666667  0.4601195945381559   T   T   T
  0.6250000000000001  0.8333333333333335  0.4601195945381559   T   T   T
  0.5000000000000000  0.8333333333333335  0.5132934684872814   T   T   T
  0.6250000000000001  0.6666666666666667  0.5132934684872814   T   T   T
  0.5000000000000000  0.6666666666666667  0.5664673424364071   T   T   T
  0.6250000000000001  0.8333333333333335  0.5664673424364071   T   T   T
  0.5000000000000000  0.8333333333333335  0.6196412163855328   T   T   T
  0.6250000000000001  0.6666666666666667  0.6196412163855328   T   T   T
  0.7500000000000000  0.0000000000000000  0.3537718466399045   F   F   F
  0.8750000000000000  0.1666666666666667  0.3537718466399045   F   F   F
  0.7500000000000000  0.1666666666666667  0.4069457205890302   F   F   F
  0.8750000000000000  0.0000000000000000  0.4069457205890302   F   F   F
  0.7500000000000000  0.0000000000000000  0.4601195945381559   T   T   T
  0.8750000000000000  0.1666666666666667  0.4601195945381559   T   T   T
  0.7500000000000000  0.1666666666666667  0.5132934684872814   T   T   T
  0.8750000000000000  0.0000000000000000  0.5132934684872814   T   T   T
  0.7500000000000000  0.0000000000000000  0.5664673424364071   T   T   T
  0.8750000000000000  0.1666666666666667  0.5664673424364071   T   T   T
  0.7500000000000000  0.1666666666666667  0.6196412163855328   T   T   T
  0.8750000000000000  0.0000000000000000  0.6196412163855328   T   T   T
  0.7500000000000000  0.3333333333333334  0.3537718466399045   F   F   F
  0.8750000000000000  0.5000000000000000  0.3537718466399045   F   F   F
  0.7500000000000000  0.5000000000000000  0.4069457205890302   F   F   F
  0.8750000000000000  0.3333333333333334  0.4069457205890302   F   F   F
  0.7500000000000000  0.3333333333333334  0.4601195945381559   T   T   T
  0.8750000000000000  0.5000000000000000  0.4601195945381559   T   T   T
  0.7500000000000000  0.5000000000000000  0.5132934684872814   T   T   T
  0.8750000000000000  0.3333333333333334  0.5132934684872814   T   T   T
  0.7500000000000000  0.3333333333333334  0.5664673424364071   T   T   T
  0.8750000000000000  0.5000000000000000  0.5664673424364071   T   T   T
  0.7500000000000000  0.5000000000000000  0.6196412163855328   T   T   T
  0.8750000000000000  0.3333333333333334  0.6196412163855328   T   T   T
  0.7500000000000000  0.6666666666666667  0.3537718466399045   F   F   F
  0.8750000000000000  0.8333333333333335  0.3537718466399045   F   F   F
  0.7500000000000000  0.8333333333333335  0.4069457205890302   F   F   F
  0.8750000000000000  0.6666666666666667  0.4069457205890302   F   F   F
  0.7500000000000000  0.6666666666666667  0.4601195945381559   T   T   T
  0.8750000000000000  0.8333333333333335  0.4601195945381559   T   T   T
  0.7500000000000000  0.8333333333333335  0.5132934684872814   T   T   T
  0.8750000000000000  0.6666666666666667  0.5132934684872814   T   T   T
  0.7500000000000000  0.6666666666666667  0.5664673424364071   T   T   T
  0.8750000000000000  0.8333333333333335  0.5664673424364071   T   T   T
  0.7500000000000000  0.8333333333333335  0.6196412163855328   T   T   T
  0.8750000000000000  0.6666666666666667  0.6196412163855328   T   T   T
  0.0625000000000000  0.0833333333333333  0.3803587836144673   F   F   F
  0.1875000000000000  0.2500000000000000  0.4335326575635930   F   F   F
  0.1875000000000000  0.2500000000000000  0.3803587836144673   F   F   F
  0.0625000000000000  0.0833333333333333  0.4335326575635930   F   F   F
  0.0625000000000000  0.2500000000000000  0.4335326575635930   F   F   F
  0.1875000000000000  0.0833333333333333  0.3803587836144673   F   F   F
  0.1875000000000000  0.0833333333333333  0.4335326575635930   F   F   F
  0.0625000000000000  0.2500000000000000  0.3803587836144673   F   F   F
  0.0625000000000000  0.0833333333333333  0.4867065315127187   T   T   T
  0.1875000000000000  0.2500000000000000  0.5398804054618442   T   T   T
  0.1875000000000000  0.2500000000000000  0.4867065315127187   T   T   T
  0.0625000000000000  0.0833333333333333  0.5398804054618442   T   T   T
  0.0625000000000000  0.2500000000000000  0.5398804054618442   T   T   T
  0.1875000000000000  0.0833333333333333  0.4867065315127187   T   T   T
  0.1875000000000000  0.0833333333333333  0.5398804054618442   T   T   T
  0.0625000000000000  0.2500000000000000  0.4867065315127187   T   T   T
  0.0625000000000000  0.0833333333333333  0.5930542794109699   T   T   T
  0.1875000000000000  0.2500000000000000  0.6462281533600955   T   T   T
  0.1875000000000000  0.2500000000000000  0.5930542794109699   T   T   T
  0.0625000000000000  0.0833333333333333  0.6462281533600955   T   T   T
  0.0625000000000000  0.2500000000000000  0.6462281533600955   T   T   T
  0.1875000000000000  0.0833333333333333  0.5930542794109699   T   T   T
  0.1875000000000000  0.0833333333333333  0.6462281533600955   T   T   T
  0.0625000000000000  0.2500000000000000  0.5930542794109699   T   T   T
  0.0625000000000000  0.4166666666666667  0.3803587836144673   F   F   F
  0.1875000000000000  0.5833333333333334  0.4335326575635930   F   F   F
  0.1875000000000000  0.5833333333333334  0.3803587836144673   F   F   F
  0.0625000000000000  0.4166666666666667  0.4335326575635930   F   F   F
  0.0625000000000000  0.5833333333333334  0.4335326575635930   F   F   F
  0.1875000000000000  0.4166666666666667  0.3803587836144673   F   F   F
  0.1875000000000000  0.4166666666666667  0.4335326575635930   F   F   F
  0.0625000000000000  0.5833333333333334  0.3803587836144673   F   F   F
  0.0625000000000000  0.4166666666666667  0.4867065315127187   T   T   T
  0.1875000000000000  0.5833333333333334  0.5398804054618442   T   T   T
  0.1875000000000000  0.5833333333333334  0.4867065315127187   T   T   T
  0.0625000000000000  0.4166666666666667  0.5398804054618442   T   T   T
  0.0625000000000000  0.5833333333333334  0.5398804054618442   T   T   T
  0.1875000000000000  0.4166666666666667  0.4867065315127187   T   T   T
  0.1875000000000000  0.4166666666666667  0.5398804054618442   T   T   T
  0.0625000000000000  0.5833333333333334  0.4867065315127187   T   T   T
  0.0625000000000000  0.4166666666666667  0.5930542794109699   T   T   T
  0.1875000000000000  0.5833333333333334  0.6462281533600955   T   T   T
  0.1875000000000000  0.5833333333333334  0.5930542794109699   T   T   T
  0.0625000000000000  0.4166666666666667  0.6462281533600955   T   T   T
  0.0625000000000000  0.5833333333333334  0.6462281533600955   T   T   T
  0.1875000000000000  0.4166666666666667  0.5930542794109699   T   T   T
  0.1875000000000000  0.4166666666666667  0.6462281533600955   T   T   T
  0.0625000000000000  0.5833333333333334  0.5930542794109699   T   T   T
  0.0625000000000000  0.7500000000000001  0.3803587836144673   F   F   F
  0.1875000000000000  0.9166666666666667  0.4335326575635930   F   F   F
  0.1875000000000000  0.9166666666666667  0.3803587836144673   F   F   F
  0.0625000000000000  0.7500000000000001  0.4335326575635930   F   F   F
  0.0625000000000000  0.9166666666666667  0.4335326575635930   F   F   F
  0.1875000000000000  0.7500000000000001  0.3803587836144673   F   F   F
  0.1875000000000000  0.7500000000000001  0.4335326575635930   F   F   F
  0.0625000000000000  0.9166666666666667  0.3803587836144673   F   F   F
  0.0625000000000000  0.7500000000000001  0.4867065315127187   T   T   T
  0.1875000000000000  0.9166666666666667  0.5398804054618442   T   T   T
  0.1875000000000000  0.9166666666666667  0.4867065315127187   T   T   T
  0.0625000000000000  0.7500000000000001  0.5398804054618442   T   T   T
  0.0625000000000000  0.9166666666666667  0.5398804054618442   T   T   T
  0.1875000000000000  0.7500000000000001  0.4867065315127187   T   T   T
  0.1875000000000000  0.7500000000000001  0.5398804054618442   T   T   T
  0.0625000000000000  0.9166666666666667  0.4867065315127187   T   T   T
  0.0625000000000000  0.7500000000000001  0.5930542794109699   T   T   T
  0.1875000000000000  0.9166666666666667  0.6462281533600955   T   T   T
  0.1875000000000000  0.9166666666666667  0.5930542794109699   T   T   T
  0.0625000000000000  0.7500000000000001  0.6462281533600955   T   T   T
  0.0625000000000000  0.9166666666666667  0.6462281533600955   T   T   T
  0.1875000000000000  0.7500000000000001  0.5930542794109699   T   T   T
  0.1875000000000000  0.7500000000000001  0.6462281533600955   T   T   T
  0.0625000000000000  0.9166666666666667  0.5930542794109699   T   T   T
  0.3125000000000001  0.0833333333333333  0.3803587836144673   F   F   F
  0.4375000000000000  0.2500000000000000  0.4335326575635930   F   F   F
  0.4375000000000000  0.2500000000000000  0.3803587836144673   F   F   F
  0.3125000000000001  0.0833333333333333  0.4335326575635930   F   F   F
  0.3125000000000001  0.2500000000000000  0.4335326575635930   F   F   F
  0.4375000000000000  0.0833333333333333  0.3803587836144673   F   F   F
  0.4375000000000000  0.0833333333333333  0.4335326575635930   F   F   F
  0.3125000000000001  0.2500000000000000  0.3803587836144673   F   F   F
  0.3125000000000001  0.0833333333333333  0.4867065315127187   T   T   T
  0.4375000000000000  0.2500000000000000  0.5398804054618442   T   T   T
  0.4375000000000000  0.2500000000000000  0.4867065315127187   T   T   T
  0.3125000000000001  0.0833333333333333  0.5398804054618442   T   T   T
  0.3125000000000001  0.2500000000000000  0.5398804054618442   T   T   T
  0.4375000000000000  0.0833333333333333  0.4867065315127187   T   T   T
  0.4375000000000000  0.0833333333333333  0.5398804054618442   T   T   T
  0.3125000000000001  0.2500000000000000  0.4867065315127187   T   T   T
  0.3125000000000001  0.0833333333333333  0.5930542794109699   T   T   T
  0.4375000000000000  0.2500000000000000  0.6462281533600955   T   T   T
  0.4375000000000000  0.2500000000000000  0.5930542794109699   T   T   T
  0.3125000000000001  0.0833333333333333  0.6462281533600955   T   T   T
  0.3125000000000001  0.2500000000000000  0.6462281533600955   T   T   T
  0.4375000000000000  0.0833333333333333  0.5930542794109699   T   T   T
  0.4375000000000000  0.0833333333333333  0.6462281533600955   T   T   T
  0.3125000000000001  0.2500000000000000  0.5930542794109699   T   T   T
  0.3125000000000001  0.4166666666666667  0.3803587836144673   F   F   F
  0.4375000000000000  0.5833333333333334  0.4335326575635930   F   F   F
  0.4375000000000000  0.5833333333333334  0.3803587836144673   F   F   F
  0.3125000000000001  0.4166666666666667  0.4335326575635930   F   F   F
  0.3125000000000001  0.5833333333333334  0.4335326575635930   F   F   F
  0.4375000000000000  0.4166666666666667  0.3803587836144673   F   F   F
  0.4375000000000000  0.4166666666666667  0.4335326575635930   F   F   F
  0.3125000000000001  0.5833333333333334  0.3803587836144673   F   F   F
  0.3125000000000001  0.4166666666666667  0.4867065315127187   T   T   T
  0.4375000000000000  0.5833333333333334  0.5398804054618442   T   T   T
  0.4375000000000000  0.5833333333333334  0.4867065315127187   T   T   T
  0.3125000000000001  0.4166666666666667  0.5398804054618442   T   T   T
  0.3125000000000001  0.5833333333333334  0.5398804054618442   T   T   T
  0.4375000000000000  0.4166666666666667  0.4867065315127187   T   T   T
  0.4375000000000000  0.4166666666666667  0.5398804054618442   T   T   T
  0.3125000000000001  0.5833333333333334  0.4867065315127187   T   T   T
  0.3125000000000001  0.4166666666666667  0.5930542794109699   T   T   T
  0.4375000000000000  0.5833333333333334  0.6462281533600955   T   T   T
  0.4375000000000000  0.5833333333333334  0.5930542794109699   T   T   T
  0.3125000000000001  0.4166666666666667  0.6462281533600955   T   T   T
  0.3125000000000001  0.5833333333333334  0.6462281533600955   T   T   T
  0.4375000000000000  0.4166666666666667  0.5930542794109699   T   T   T
  0.4375000000000000  0.4166666666666667  0.6462281533600955   T   T   T
  0.3125000000000001  0.5833333333333334  0.5930542794109699   T   T   T
  0.3125000000000001  0.7500000000000001  0.3803587836144673   F   F   F
  0.4375000000000000  0.9166666666666667  0.4335326575635930   F   F   F
  0.4375000000000000  0.9166666666666667  0.3803587836144673   F   F   F
  0.3125000000000001  0.7500000000000001  0.4335326575635930   F   F   F
  0.3125000000000001  0.9166666666666667  0.4335326575635930   F   F   F
  0.4375000000000000  0.7500000000000001  0.3803587836144673   F   F   F
  0.4375000000000000  0.7500000000000001  0.4335326575635930   F   F   F
  0.3125000000000001  0.9166666666666667  0.3803587836144673   F   F   F
  0.3125000000000001  0.7500000000000001  0.4867065315127187   T   T   T
  0.4375000000000000  0.9166666666666667  0.5398804054618442   T   T   T
  0.4375000000000000  0.9166666666666667  0.4867065315127187   T   T   T
  0.3125000000000001  0.7500000000000001  0.5398804054618442   T   T   T
  0.3125000000000001  0.9166666666666667  0.5398804054618442   T   T   T
  0.4375000000000000  0.7500000000000001  0.4867065315127187   T   T   T
  0.4375000000000000  0.7500000000000001  0.5398804054618442   T   T   T
  0.3125000000000001  0.9166666666666667  0.4867065315127187   T   T   T
  0.3125000000000001  0.7500000000000001  0.5930542794109699   T   T   T
  0.4375000000000000  0.9166666666666667  0.6462281533600955   T   T   T
  0.4375000000000000  0.9166666666666667  0.5930542794109699   T   T   T
  0.3125000000000001  0.7500000000000001  0.6462281533600955   T   T   T
  0.3125000000000001  0.9166666666666667  0.6462281533600955   T   T   T
  0.4375000000000000  0.7500000000000001  0.5930542794109699   T   T   T
  0.4375000000000000  0.7500000000000001  0.6462281533600955   T   T   T
  0.3125000000000001  0.9166666666666667  0.5930542794109699   T   T   T
  0.5625000000000001  0.0833333333333333  0.3803587836144673   F   F   F
  0.6875000000000000  0.2500000000000000  0.4335326575635930   F   F   F
  0.6875000000000000  0.2500000000000000  0.3803587836144673   F   F   F
  0.5625000000000001  0.0833333333333333  0.4335326575635930   F   F   F
  0.5625000000000001  0.2500000000000000  0.4335326575635930   F   F   F
  0.6875000000000000  0.0833333333333333  0.3803587836144673   F   F   F
  0.6875000000000000  0.0833333333333333  0.4335326575635930   F   F   F
  0.5625000000000001  0.2500000000000000  0.3803587836144673   F   F   F
  0.5625000000000001  0.0833333333333333  0.4867065315127187   T   T   T
  0.6875000000000000  0.2500000000000000  0.5398804054618442   T   T   T
  0.6875000000000000  0.2500000000000000  0.4867065315127187   T   T   T
  0.5625000000000001  0.0833333333333333  0.5398804054618442   T   T   T
  0.5625000000000001  0.2500000000000000  0.5398804054618442   T   T   T
  0.6875000000000000  0.0833333333333333  0.4867065315127187   T   T   T
  0.6875000000000000  0.0833333333333333  0.5398804054618442   T   T   T
  0.5625000000000001  0.2500000000000000  0.4867065315127187   T   T   T
  0.5625000000000001  0.0833333333333333  0.5930542794109699   T   T   T
  0.6875000000000000  0.2500000000000000  0.6462281533600955   T   T   T
  0.6875000000000000  0.2500000000000000  0.5930542794109699   T   T   T
  0.5625000000000001  0.0833333333333333  0.6462281533600955   T   T   T
  0.5625000000000001  0.2500000000000000  0.6462281533600955   T   T   T
  0.6875000000000000  0.0833333333333333  0.5930542794109699   T   T   T
  0.6875000000000000  0.0833333333333333  0.6462281533600955   T   T   T
  0.5625000000000001  0.2500000000000000  0.5930542794109699   T   T   T
  0.5625000000000001  0.4166666666666667  0.3803587836144673   F   F   F
  0.6875000000000000  0.5833333333333334  0.4335326575635930   F   F   F
  0.6875000000000000  0.5833333333333334  0.3803587836144673   F   F   F
  0.5625000000000001  0.4166666666666667  0.4335326575635930   F   F   F
  0.5625000000000001  0.5833333333333334  0.4335326575635930   F   F   F
  0.6875000000000000  0.4166666666666667  0.3803587836144673   F   F   F
  0.6875000000000000  0.4166666666666667  0.4335326575635930   F   F   F
  0.5625000000000001  0.5833333333333334  0.3803587836144673   F   F   F
  0.5625000000000001  0.4166666666666667  0.4867065315127187   T   T   T
  0.6875000000000000  0.5833333333333334  0.5398804054618442   T   T   T
  0.6875000000000000  0.5833333333333334  0.4867065315127187   T   T   T
  0.5625000000000001  0.4166666666666667  0.5398804054618442   T   T   T
  0.5625000000000001  0.5833333333333334  0.5398804054618442   T   T   T
  0.6875000000000000  0.4166666666666667  0.4867065315127187   T   T   T
  0.6875000000000000  0.4166666666666667  0.5398804054618442   T   T   T
  0.5625000000000001  0.5833333333333334  0.4867065315127187   T   T   T
  0.5625000000000001  0.4166666666666667  0.5930542794109699   T   T   T
  0.6875000000000000  0.5833333333333334  0.6462281533600955   T   T   T
  0.6875000000000000  0.5833333333333334  0.5930542794109699   T   T   T
  0.5625000000000001  0.4166666666666667  0.6462281533600955   T   T   T
  0.5625000000000001  0.5833333333333334  0.6462281533600955   T   T   T
  0.6875000000000000  0.4166666666666667  0.5930542794109699   T   T   T
  0.6875000000000000  0.4166666666666667  0.6462281533600955   T   T   T
  0.5625000000000001  0.5833333333333334  0.5930542794109699   T   T   T
  0.5625000000000001  0.7500000000000001  0.3803587836144673   F   F   F
  0.6875000000000000  0.9166666666666667  0.4335326575635930   F   F   F
  0.6875000000000000  0.9166666666666667  0.3803587836144673   F   F   F
  0.5625000000000001  0.7500000000000001  0.4335326575635930   F   F   F
  0.5625000000000001  0.9166666666666667  0.4335326575635930   F   F   F
  0.6875000000000000  0.7500000000000001  0.3803587836144673   F   F   F
  0.6875000000000000  0.7500000000000001  0.4335326575635930   F   F   F
  0.5625000000000001  0.9166666666666667  0.3803587836144673   F   F   F
  0.5625000000000001  0.7500000000000001  0.4867065315127187   T   T   T
  0.6875000000000000  0.9166666666666667  0.5398804054618442   T   T   T
  0.6875000000000000  0.9166666666666667  0.4867065315127187   T   T   T
  0.5625000000000001  0.7500000000000001  0.5398804054618442   T   T   T
  0.5625000000000001  0.9166666666666667  0.5398804054618442   T   T   T
  0.6875000000000000  0.7500000000000001  0.4867065315127187   T   T   T
  0.6875000000000000  0.7500000000000001  0.5398804054618442   T   T   T
  0.5625000000000001  0.9166666666666667  0.4867065315127187   T   T   T
  0.5625000000000001  0.7500000000000001  0.5930542794109699   T   T   T
  0.6875000000000000  0.9166666666666667  0.6462281533600955   T   T   T
  0.6875000000000000  0.9166666666666667  0.5930542794109699   T   T   T
  0.5625000000000001  0.7500000000000001  0.6462281533600955   T   T   T
  0.5625000000000001  0.9166666666666667  0.6462281533600955   T   T   T
  0.6875000000000000  0.7500000000000001  0.5930542794109699   T   T   T
  0.6875000000000000  0.7500000000000001  0.6462281533600955   T   T   T
  0.5625000000000001  0.9166666666666667  0.5930542794109699   T   T   T
  0.8125000000000000  0.0833333333333333  0.3803587836144673   F   F   F
  0.9375000000000000  0.2500000000000000  0.4335326575635930   F   F   F
  0.9375000000000000  0.2500000000000000  0.3803587836144673   F   F   F
  0.8125000000000000  0.0833333333333333  0.4335326575635930   F   F   F
  0.8125000000000000  0.2500000000000000  0.4335326575635930   F   F   F
  0.9375000000000000  0.0833333333333333  0.3803587836144673   F   F   F
  0.9375000000000000  0.0833333333333333  0.4335326575635930   F   F   F
  0.8125000000000000  0.2500000000000000  0.3803587836144673   F   F   F
  0.8125000000000000  0.0833333333333333  0.4867065315127187   T   T   T
  0.9375000000000000  0.2500000000000000  0.5398804054618442   T   T   T
  0.9375000000000000  0.2500000000000000  0.4867065315127187   T   T   T
  0.8125000000000000  0.0833333333333333  0.5398804054618442   T   T   T
  0.8125000000000000  0.2500000000000000  0.5398804054618442   T   T   T
  0.9375000000000000  0.0833333333333333  0.4867065315127187   T   T   T
  0.9375000000000000  0.0833333333333333  0.5398804054618442   T   T   T
  0.8125000000000000  0.2500000000000000  0.4867065315127187   T   T   T
  0.8125000000000000  0.0833333333333333  0.5930542794109699   T   T   T
  0.9375000000000000  0.2500000000000000  0.6462281533600955   T   T   T
  0.9375000000000000  0.2500000000000000  0.5930542794109699   T   T   T
  0.8125000000000000  0.0833333333333333  0.6462281533600955   T   T   T
  0.8125000000000000  0.2500000000000000  0.6462281533600955   T   T   T
  0.9375000000000000  0.0833333333333333  0.5930542794109699   T   T   T
  0.9375000000000000  0.0833333333333333  0.6462281533600955   T   T   T
  0.8125000000000000  0.2500000000000000  0.5930542794109699   T   T   T
  0.8125000000000000  0.4166666666666667  0.3803587836144673   F   F   F
  0.9375000000000000  0.5833333333333334  0.4335326575635930   F   F   F
  0.9375000000000000  0.5833333333333334  0.3803587836144673   F   F   F
  0.8125000000000000  0.4166666666666667  0.4335326575635930   F   F   F
  0.8125000000000000  0.5833333333333334  0.4335326575635930   F   F   F
  0.9375000000000000  0.4166666666666667  0.3803587836144673   F   F   F
  0.9375000000000000  0.4166666666666667  0.4335326575635930   F   F   F
  0.8125000000000000  0.5833333333333334  0.3803587836144673   F   F   F
  0.8125000000000000  0.4166666666666667  0.4867065315127187   T   T   T
  0.9375000000000000  0.5833333333333334  0.5398804054618442   T   T   T
  0.9375000000000000  0.5833333333333334  0.4867065315127187   T   T   T
  0.8125000000000000  0.4166666666666667  0.5398804054618442   T   T   T
  0.8125000000000000  0.5833333333333334  0.5398804054618442   T   T   T
  0.9375000000000000  0.4166666666666667  0.4867065315127187   T   T   T
  0.9375000000000000  0.4166666666666667  0.5398804054618442   T   T   T
  0.8125000000000000  0.5833333333333334  0.4867065315127187   T   T   T
  0.8125000000000000  0.4166666666666667  0.5930542794109699   T   T   T
  0.9375000000000000  0.5833333333333334  0.6462281533600955   T   T   T
  0.9375000000000000  0.5833333333333334  0.5930542794109699   T   T   T
  0.8125000000000000  0.4166666666666667  0.6462281533600955   T   T   T
  0.8125000000000000  0.5833333333333334  0.6462281533600955   T   T   T
  0.9375000000000000  0.4166666666666667  0.5930542794109699   T   T   T
  0.9375000000000000  0.4166666666666667  0.6462281533600955   T   T   T
  0.8125000000000000  0.5833333333333334  0.5930542794109699   T   T   T
  0.8125000000000000  0.7500000000000001  0.3803587836144673   F   F   F
  0.9375000000000000  0.9166666666666667  0.4335326575635930   F   F   F
  0.9375000000000000  0.9166666666666667  0.3803587836144673   F   F   F
  0.8125000000000000  0.7500000000000001  0.4335326575635930   F   F   F
  0.8125000000000000  0.9166666666666667  0.4335326575635930   F   F   F
  0.9375000000000000  0.7500000000000001  0.3803587836144673   F   F   F
  0.9375000000000000  0.7500000000000001  0.4335326575635930   F   F   F
  0.8125000000000000  0.9166666666666667  0.3803587836144673   F   F   F
  0.8125000000000000  0.7500000000000001  0.4867065315127187   T   T   T
  0.9375000000000000  0.9166666666666667  0.5398804054618442   T   T   T
  0.9375000000000000  0.9166666666666667  0.4867065315127187   T   T   T
  0.8125000000000000  0.7500000000000001  0.5398804054618442   T   T   T
  0.8125000000000000  0.9166666666666667  0.5398804054618442   T   T   T
  0.9375000000000000  0.7500000000000001  0.4867065315127187   T   T   T
  0.9375000000000000  0.7500000000000001  0.5398804054618442   T   T   T
  0.8125000000000000  0.9166666666666667  0.4867065315127187   T   T   T
  0.8125000000000000  0.7500000000000001  0.5930542794109699   T   T   T
  0.9375000000000000  0.9166666666666667  0.6462281533600955   T   T   T
  0.9375000000000000  0.9166666666666667  0.5930542794109699   T   T   T
  0.8125000000000000  0.7500000000000001  0.6462281533600955   T   T   T
  0.8125000000000000  0.9166666666666667  0.6462281533600955   T   T   T
  0.9375000000000000  0.7500000000000001  0.5930542794109699   T   T   T
  0.9375000000000000  0.7500000000000001  0.6462281533600955   T   T   T
  0.8125000000000000  0.9166666666666667  0.5930542794109699   T   T   T
  0.1645543871738690  0.6760832540732953  0.7454819529097058   T   T   T
  0.2756696697656862  0.6310618264630586  0.7213576453571224   T   T   T
  0.4021218407363776  0.3431975253333936  0.6947317139379411   T   T   T
  0.5127105937364336  0.4294195475556222  0.7023128746757807   T   T   T
  0.5910416157562493  0.7572175838983739  0.7132554788714701   T   T   T
  0.6836488962840751  0.7036918083667340  0.7457675414193470   T   T   T
  0.7122451071184271  0.5345389274750535  0.8435052070819063   T   T   T
  0.8257039674735458  0.4835249638149079  0.8216567414003372   T   T   T
  0.2719258063728659  0.3296627313775093  0.7883354234622106   T   T   T
  0.3056113194455855  0.4125753549354327  0.7903695721305628   T   T   T
  0.2700075191693416  0.4823556353457601  0.7774962003523082   T   T   T
  0.2140676823181513  0.5072758175648227  0.7889815386893805   T   T   T
  0.1797451924461344  0.5715427682594979  0.7782253010218906   T   T   T
  0.2004375756834893  0.6124493057188279  0.7557994008988999   T   T   T
  0.2564992731011937  0.5894175882817473  0.7439898090819175   T   T   T
  0.2922544718588902  0.5250454607766716  0.7550184084201125   T   T   T
  0.4032951047350493  0.6035342469992878  0.7941280049731170   T   T   T
  0.4075176403416910  0.6219463252685224  0.7645042006112832   T   T   T
  0.4072818039078214  0.5455551669578932  0.7469138830584617   T   T   T
  0.3515206061791445  0.5014126314596987  0.7424881159401842   T   T   T
  0.3506967943355630  0.4345629302397769  0.7251218295606869   T   T   T
  0.4040841645300479  0.4098410308260994  0.7120011003179039   T   T   T
  0.4595168525692285  0.4523642498946130  0.7160217127069600   T   T   T
  0.4618558580488226  0.5192476714766532  0.7336322490716037   T   T   T
  0.6034537330429984  0.3804074599646920  0.7539053258790199   T   T   T
  0.5630906682119974  0.4472020691486947  0.7665107494712519   T   T   T
  0.5702541540051064  0.5304330345900862  0.7528870133139500   T   T   T
  0.5217963181986700  0.5624779861237086  0.7370145838488756   T   T   T
  0.5300653550224854  0.6367069857747037  0.7234661295357246   T   T   T
  0.5840888861192292  0.6824374481142282  0.7264045621792622   T   T   T
  0.6313615168094440  0.6540161434236887  0.7426976512744758   T   T   T
  0.6255423620731551  0.5772716317907527  0.7556796614844452   T   T   T
  0.7797230572703624  0.4416789828708671  0.7214411648180721   T   T   T
  0.7437516300437662  0.5169445839180190  0.7315812411963817   T   T   T
  0.7339720208530521  0.5195125015622273  0.7612303605875759   T   T   T
  0.6774098691831576  0.5475655031747305  0.7722751238041149   T   T   T
  0.6709666476861540  0.5524574404383256  0.7996739296283375   T   T   T
  0.7196025750040372  0.5303215042524492  0.8163186465736660   T   T   T
  0.7760072587080311  0.5046807817228567  0.8055662549201689   T   T   T
  0.7831955637978146  0.5005318665727484  0.7783057022671563   T   T   T
  0.2661393185473953  0.3036195729633804  0.7609875967453484   T   T   T
  0.4543070653885419  0.5526838877147734  0.8035534116659347   T   T   T
  0.5815338877068784  0.2986991526743937  0.7614200162505635   T   T   T
  0.7488110905704701  0.3649474835218741  0.7285963218026429   T   T   T
  0.2308700518575074  0.3381576596424863  0.7522644393719158   T   T   T
  0.2509582970879664  0.2424696904670684  0.7609306893490513   T   T   T
  0.2992285581449645  0.2828852408297602  0.7992981357122777   T   T   T
  0.2255165181622944  0.3332851084171603  0.7976676932339326   T   T   T
  0.3118998772860211  0.4276107897522687  0.8115159228914101   T   T   T
  0.3527789990298820  0.4056151789535185  0.7821335819180767   T   T   T
  0.1969633986891480  0.4768711771718522  0.8064750839450220   T   T   T
  0.1366569299617099  0.5896333364398216  0.7873656396188752   T   T   T
  0.1773040650659255  0.7079961501915151  0.7292583634792803   T   T   T
  0.3151317881582612  0.6173573209465171  0.7116169495021564   T   T   T
  0.4498567743416114  0.4937470289025543  0.7955561995533154   T   T   T
  0.4960755083445552  0.5781655181191973  0.7972013015109926   T   T   T
  0.3589126231665212  0.5735720017387230  0.7990690974104585   T   T   T
  0.4041143827561379  0.6629884365729902  0.8049446922281485   T   T   T
  0.4487614935698229  0.6608842737518656  0.7612081748844675   T   T   T
  0.3680204040194385  0.6620135011925863  0.7590363529564457   T   T   T
  0.3078316414846901  0.4022698840448329  0.7213760271430528   T   T   T
  0.3625814774041116  0.3113853213678442  0.6914481330504753   T   T   T
  0.5132856114396371  0.3817686061809754  0.6894669346160839   T   T   T
  0.5400220851405836  0.2874565183127701  0.7515102655341078   T   T   T
  0.6133081418583858  0.2555857058606353  0.7543086050333895   T   T   T
  0.6515503809879059  0.3876512276492849  0.7609552457562189   T   T   T
  0.6034617467426895  0.3861649989403342  0.7321333524927464   T   T   T
  0.5144282315820384  0.4261513767700639  0.7661683852579424   T   T   T
  0.5748578943713967  0.4527110432882399  0.7876549499896653   T   T   T
  0.4935250649641746  0.6600001899774577  0.7109360096703677   T   T   T
  0.5575556978265178  0.7797695175183437  0.7013378831874866   T   T   T
  0.7189591351933814  0.6896136817965831  0.7580046667177387   T   T   T
  0.7589359296835025  0.3520547417178818  0.7482649572850620   T   T   T
  0.7688547109602801  0.3174954147036405  0.7176217452482688   T   T   T
  0.7820259727920840  0.4460448565055963  0.6996433616057904   T   T   T
  0.8281696283594391  0.4417106023858842  0.7286553586058671   T   T   T
  0.7689414289987360  0.5736209545742662  0.7256801346434796   T   T   T
  0.6988169750427506  0.5173472775108259  0.7210614457988218   T   T   T
  0.6280575350673165  0.5744887085799633  0.8081094162000390   T   T   T
  0.6719651615830244  0.5530658337090313  0.8517605072686449   T   T   T
  0.8229457549614855  0.4856391440461983  0.8415190507877762   T   T   T
  0.8277834025836761  0.4826316087890084  0.7706374624085380   T   T   T
