SYSTEM = PDA@CeO2 production-baseline
PREC = Accurate
ENCUT = 520
EDIFF = 1E-6
EDIFFG = -0.02
ISPIN = 2
MAGMOM = 1 1 1 1 1 1 1 1 1 1 1 1 1 1 1 1 1 1 1 1 1 1 1 1 1 1 1 1 1 1 1 1 1 1 1 1 1 1 1 1 1 1 1 1 1 1 1 1 1 1 1 1 1 1 1 1 1 1 1 1 1 1 1 1 1 1 1 1 1 1 1 1 0 0 0 0 0 0 0 0 0 0 0 0 0 0 0 0 0 0 0 0 0 0 0 0 0 0 0 0 0 0 0 0 0 0 0 0 0 0 0 0 0 0 0 0 0 0 0 0 0 0 0 0 0 0 0 0 0 0 0 0 0 0 0 0 0 0 0 0 0 0 0 0 0 0 0 0 0 0 0 0 0 0 0 0 0 0 0 0 0 0 0 0 0 0 0 0 0 0 0 0 0 0 0 0 0 0 0 0 0 0 0 0 0 0 0 0 0 0 0 0 0 0 0 0 0 0 0 0 0 0 0 0 0 0 0 0 0 0 0 0 0 0 0 2
ISMEAR = 0
SIGMA = 0.05
ALGO = Normal
NELM = 160
NELMDL = -5
AMIX = 0.2
BMIX = 0.0001
AMIX_MAG = 0.8
BMIX_MAG = 0.0001
NCORE = 2
KPAR = 1
ISIF = 2
IBRION = 3
NSW = 200
ISYM = 0
LREAL = Auto
LASPH = .TRUE.
ADDGRID = .TRUE.
LWAVE = .FALSE.
LCHARG = .TRUE.
LORBIT = 11
LDIPOL = .TRUE.
IDIPOL = 3
LDAU = .TRUE.
LDAUTYPE = 2
LDAUL = 3 -1
LDAUU = 4.5 0
LDAUJ = 0 0
LMAXMIX = 6
GGA = PE
IVDW = 12
IMAGES = 5
SPRING = -5
LCLIMB = .TRUE.
IOPT = 3
