Ce O  H 
 1.0000000000000000
    15.3046191720016331    0.0000000000000000    0.0000000000000000
     7.6523095860008175   13.2541889981997745    0.0000000000000000
     0.0000000000000000    0.0000000000000000   44.5911163431089221
 Ce  O   H  
  48  97   6
Selective dynamics
Direct
  0.0000000000000000  0.0000000000000000  0.4036678485799270   F   F   F
  0.0000000000000000  0.2500000000000000  0.4036678485799270   F   F   F
  0.2500000000000000  0.0000000000000000  0.4036678485799270   F   F   F
  0.2500000000000000  0.2500000000000000  0.4036678485799270   F   F   F
  0.3333333333333333  0.3333333333333333  0.4737275950672529   T   T   T
  0.3333333333333333  0.0833333333333333  0.4737275950672529   T   T   T
  0.0833333333333333  0.3333333333333333  0.4737275950672529   T   T   T
  0.0833333333333333  0.0833333333333333  0.4737275950672529   T   T   T
  0.1666666666666666  0.1666666666666666  0.5437873415545788   T   T   T
  0.1666666666666666  0.4166666666666666  0.5437873415545788   T   T   T
  0.4166666666666667  0.1666666666666666  0.5437873415545788   T   T   T
  0.4166666666666666  0.4166666666666666  0.5437873415545788   T   T   T
  0.0000000000000000  0.5000000000000000  0.4036678485799270   F   F   F
  0.0000000000000000  0.7500000000000000  0.4036678485799270   F   F   F
  0.2500000000000000  0.5000000000000000  0.4036678485799270   F   F   F
  0.2500000000000000  0.7500000000000000  0.4036678485799270   F   F   F
  0.3333333333333334  0.8333333333333333  0.4737275950672529   T   T   T
  0.3333333333333333  0.5833333333333334  0.4737275950672529   T   T   T
  0.0833333333333333  0.8333333333333333  0.4737275950672529   T   T   T
  0.0833333333333332  0.5833333333333334  0.4737275950672529   T   T   T
  0.1666666666666667  0.6666666666666666  0.5437873415545788   T   T   T
  0.1666666666666667  0.9166666666666666  0.5437873415545788   T   T   T
  0.4166666666666666  0.6666666666666666  0.5437873415545788   T   T   T
  0.4166666666666666  0.9166666666666666  0.5437873415545788   T   T   T
  0.5000000000000000  0.0000000000000000  0.4036678485799270   F   F   F
  0.5000000000000000  0.2500000000000000  0.4036678485799270   F   F   F
  0.7500000000000000  0.0000000000000000  0.4036678485799270   F   F   F
  0.7500000000000001  0.2500000000000000  0.4036678485799270   F   F   F
  0.8333333333333334  0.3333333333333333  0.4737275950672529   T   T   T
  0.8333333333333334  0.0833333333333333  0.4737275950672529   T   T   T
  0.5833333333333333  0.3333333333333333  0.4737275950672529   T   T   T
  0.5833333333333333  0.0833333333333333  0.4737275950672529   T   T   T
  0.6666666666666666  0.1666666666666666  0.5437873415545788   T   T   T
  0.6666666666666666  0.4166666666666666  0.5437873415545788   T   T   T
  0.9166666666666666  0.1666666666666666  0.5437873415545788   T   T   T
  0.9166666666666666  0.4166666666666666  0.5437873415545788   T   T   T
  0.5000000000000000  0.5000000000000000  0.4036678485799270   F   F   F
  0.5000000000000001  0.7500000000000000  0.4036678485799270   F   F   F
  0.7500000000000000  0.5000000000000000  0.4036678485799270   F   F   F
  0.7500000000000002  0.7500000000000000  0.4036678485799270   F   F   F
  0.8333333333333334  0.8333333333333333  0.4737275950672529   T   T   T
  0.8333333333333333  0.5833333333333334  0.4737275950672529   T   T   T
  0.5833333333333333  0.8333333333333333  0.4737275950672529   T   T   T
  0.5833333333333333  0.5833333333333334  0.4737275950672529   T   T   T
  0.6666666666666666  0.6666666666666666  0.5437873415545788   T   T   T
  0.6666666666666666  0.9166666666666666  0.5437873415545788   T   T   T
  0.9166666666666666  0.6666666666666666  0.5437873415545788   T   T   T
  0.9166666666666666  0.9166666666666666  0.5437873415545788   T   T   T
  0.4999999999999999  0.4999999999999999  0.4562126584454214   F   F   F
  0.3333333333333333  0.3333333333333333  0.4211827852017584   F   F   F
  0.4999999999999999  0.2499999999999999  0.4562126584454214   F   F   F
  0.3333333333333333  0.0833333333333333  0.4211827852017584   F   F   F
  0.2499999999999999  0.0000000000000000  0.4562126584454214   F   F   F
  0.0833333333333333  0.3333333333333333  0.4211827852017584   F   F   F
  0.2499999999999999  0.2499999999999999  0.4562126584454214   F   F   F
  0.0833333333333333  0.0833333333333333  0.4211827852017584   F   F   F
  0.3333333333333333  0.3333333333333333  0.5262724049327473   T   T   T
  0.1666666666666666  0.1666666666666666  0.4912425316890843   T   T   T
  0.3333333333333334  0.0833333333333332  0.5262724049327473   T   T   T
  0.1666666666666666  0.4166666666666666  0.4912425316890843   T   T   T
  0.0833333333333333  0.3333333333333333  0.5262724049327473   T   T   T
  0.4166666666666668  0.1666666666666665  0.4912425316890843   T   T   T
  0.0833333333333333  0.0833333333333332  0.5262724049327473   T   T   T
  0.4166666666666667  0.4166666666666666  0.4912425316890843   T   T   T
  0.1666666666666665  0.1666666666666666  0.5963321514200731   T   T   T
  0.0000000000000000  0.4999999999999999  0.5613022781764102   T   T   T
  0.1666666666666667  0.4166666666666665  0.5963321514200731   T   T   T
  0.4999999999999998  0.2499999999999999  0.5613022781764102   T   T   T
  0.4166666666666667  0.1666666666666666  0.5963321514200731   T   T   T
  0.2500000000000001  0.4999999999999999  0.5613022781764102   T   T   T
  0.4166666666666667  0.4166666666666665  0.5963321514200731   T   T   T
  0.2500000000000000  0.2499999999999999  0.5613022781764102   T   T   T
  0.5000000000000000  0.9999999999999999  0.4562126584454214   F   F   F
  0.3333333333333334  0.8333333333333333  0.4211827852017584   F   F   F
  0.5000000000000000  0.7499999999999999  0.4562126584454214   F   F   F
  0.3333333333333333  0.5833333333333334  0.4211827852017584   F   F   F
  0.2500000000000000  0.5000000000000000  0.4562126584454214   F   F   F
  0.0833333333333333  0.8333333333333333  0.4211827852017584   F   F   F
  0.2499999999999999  0.7499999999999999  0.4562126584454214   F   F   F
  0.0833333333333333  0.5833333333333334  0.4211827852017584   F   F   F
  0.3333333333333333  0.8333333333333333  0.5262724049327473   T   T   T
  0.1666666666666666  0.6666666666666666  0.4912425316890843   T   T   T
  0.3333333333333334  0.5833333333333333  0.5262724049327473   T   T   T
  0.1666666666666667  0.9166666666666666  0.4912425316890843   T   T   T
  0.0833333333333333  0.8333333333333333  0.5262724049327473   T   T   T
  0.4166666666666668  0.6666666666666665  0.4912425316890843   T   T   T
  0.0833333333333332  0.5833333333333333  0.5262724049327473   T   T   T
  0.4166666666666667  0.9166666666666666  0.4912425316890843   T   T   T
  0.1666666666666665  0.6666666666666666  0.5963321514200731   T   T   T
  0.0000000000000000  0.9999999999999999  0.5613022781764102   T   T   T
  0.1666666666666667  0.9166666666666666  0.5963321514200731   T   T   T
  0.4999999999999999  0.7499999999999999  0.5613022781764102   T   T   T
  0.4166666666666666  0.6666666666666666  0.5963321514200731   T   T   T
  0.2500000000000001  0.9999999999999999  0.5613022781764102   T   T   T
  0.4166666666666666  0.9166666666666666  0.5963321514200731   T   T   T
  0.2500000000000001  0.7499999999999999  0.5613022781764102   T   T   T
  1.0000000000000000  0.4999999999999999  0.4562126584454214   F   F   F
  0.8333333333333334  0.3333333333333333  0.4211827852017584   F   F   F
  0.9999999999999999  0.2499999999999999  0.4562126584454214   F   F   F
  0.8333333333333334  0.0833333333333333  0.4211827852017584   F   F   F
  0.7500000000000000  0.0000000000000000  0.4562126584454214   F   F   F
  0.5833333333333333  0.3333333333333333  0.4211827852017584   F   F   F
  0.7499999999999999  0.2499999999999999  0.4562126584454214   F   F   F
  0.5833333333333334  0.0833333333333333  0.4211827852017584   F   F   F
  0.8333333333333334  0.3333333333333333  0.5262724049327473   T   T   T
  0.6666666666666666  0.1666666666666666  0.4912425316890843   T   T   T
  0.8333333333333334  0.0833333333333332  0.5262724049327473   T   T   T
  0.6666666666666666  0.4166666666666666  0.4912425316890843   T   T   T
  0.5833333333333333  0.3333333333333333  0.5262724049327473   T   T   T
  0.9166666666666667  0.1666666666666665  0.4912425316890843   T   T   T
  0.5833333333333333  0.0833333333333332  0.5262724049327473   T   T   T
  0.9166666666666665  0.4166666666666666  0.4912425316890843   T   T   T
  0.6666666666666666  0.1666666666666666  0.5963321514200731   T   T   T
  0.5000000000000000  0.4999999999999999  0.5613022781764102   T   T   T
  0.6666666666666669  0.4166666666666665  0.5963321514200731   T   T   T
  1.0000000000000000  0.2499999999999999  0.5613022781764102   T   T   T
  0.9166666666666666  0.1666666666666666  0.5963321514200731   T   T   T
  0.7500000000000001  0.4999999999999999  0.5613022781764102   T   T   T
  0.9166666666666666  0.4166666666666665  0.5963321514200731   T   T   T
  0.7500000000000000  0.2499999999999999  0.5613022781764102   T   T   T
  0.9999999999999999  0.9999999999999999  0.4562126584454214   F   F   F
  0.8333333333333334  0.8333333333333333  0.4211827852017584   F   F   F
  1.0000000000000000  0.7499999999999999  0.4562126584454214   F   F   F
  0.8333333333333333  0.5833333333333334  0.4211827852017584   F   F   F
  0.7500000000000000  0.5000000000000000  0.4562126584454214   F   F   F
  0.5833333333333333  0.8333333333333333  0.4211827852017584   F   F   F
  0.7500000000000000  0.7499999999999999  0.4562126584454214   F   F   F
  0.5833333333333334  0.5833333333333334  0.4211827852017584   F   F   F
  0.8333333333333334  0.8333333333333333  0.5262724049327473   T   T   T
  0.6666666666666666  0.6666666666666666  0.4912425316890843   T   T   T
  0.8333333333333334  0.5833333333333333  0.5262724049327473   T   T   T
  0.6666666666666666  0.9166666666666666  0.4912425316890843   T   T   T
  0.5833333333333333  0.8333333333333333  0.5262724049327473   T   T   T
  0.9166666666666667  0.6666666666666665  0.4912425316890843   T   T   T
  0.5833333333333333  0.5833333333333333  0.5262724049327473   T   T   T
  0.9166666666666670  0.9166666666666666  0.4912425316890843   T   T   T
  0.6666666666666666  0.6666666666666666  0.5963321514200731   T   T   T
  0.5000000000000000  0.9999999999999999  0.5613022781764102   T   T   T
  0.6666666666666669  0.9166666666666666  0.5963321514200731   T   T   T
  0.9999999999999998  0.7499999999999999  0.5613022781764102   T   T   T
  0.9166666666666666  0.6666666666666666  0.5963321514200731   T   T   T
  0.7500000000000001  0.9999999999999999  0.5613022781764102   T   T   T
  0.9166666666666666  0.9166666666666666  0.5963321514200731   T   T   T
  0.7500000000000000  0.7499999999999999  0.5613022781764102   T   T   T
  0.1666666666666666  0.1666666666666666  0.7259543827974053   T   T   T
  0.1666666666666665  0.1666666666666666  0.6183096231760914   T   T   T
  0.6666666666666669  0.9166666666666666  0.6183096231760914   T   T   T
  0.4166666666666667  0.4166666666666665  0.6183096231760914   T   T   T
  0.6666666666666669  0.4166666666666665  0.6183096231760914   T   T   T
  0.1666666666666665  0.6666666666666666  0.6183096231760914   T   T   T
  0.4166666666666666  0.6666666666666666  0.6183096231760914   T   T   T
