Ce O 
 1.0000000000000000
    10.8219999999999992    0.0000000000000000    0.0000000000000000
     0.0000000000000000   10.8219999999999992    0.0000000000000000
     0.0000000000000000    0.0000000000000000   50.8802499999999966
 Ce  O  
  48  95
Selective dynamics
Direct
  0.0000000000000000  0.0000000000000000  0.3537718466399045   F   F   F
  0.2500000000000000  0.2500000000000000  0.3537718466399045   F   F   F
  0.0000000000000000  0.2500000000000000  0.4069457205890302   F   F   F
  0.2500000000000000  0.0000000000000000  0.4069457205890302   F   F   F
  0.0000000000000000  0.0000000000000000  0.4601195945381559   T   T   T
  0.2500000000000000  0.2500000000000000  0.4601195945381559   T   T   T
  0.0000000000000000  0.2500000000000000  0.5132934684872814   T   T   T
  0.2500000000000000  0.0000000000000000  0.5132934684872814   T   T   T
  0.0000000000000000  0.0000000000000000  0.5664673424364071   T   T   T
  0.2500000000000000  0.2500000000000000  0.5664673424364071   T   T   T
  0.0000000000000000  0.2500000000000000  0.6196412163855328   T   T   T
  0.2500000000000000  0.0000000000000000  0.6196412163855328   T   T   T
  0.0000000000000000  0.5000000000000000  0.3537718466399045   F   F   F
  0.2500000000000000  0.7500000000000000  0.3537718466399045   F   F   F
  0.0000000000000000  0.7500000000000000  0.4069457205890302   F   F   F
  0.2500000000000000  0.5000000000000000  0.4069457205890302   F   F   F
  0.0000000000000000  0.5000000000000000  0.4601195945381559   T   T   T
  0.2500000000000000  0.7500000000000000  0.4601195945381559   T   T   T
  0.0000000000000000  0.7500000000000000  0.5132934684872814   T   T   T
  0.2500000000000000  0.5000000000000000  0.5132934684872814   T   T   T
  0.0000000000000000  0.5000000000000000  0.5664673424364071   T   T   T
  0.2500000000000000  0.7500000000000000  0.5664673424364071   T   T   T
  0.0000000000000000  0.7500000000000000  0.6196412163855328   T   T   T
  0.2500000000000000  0.5000000000000000  0.6196412163855328   T   T   T
  0.5000000000000000  0.0000000000000000  0.3537718466399045   F   F   F
  0.7500000000000000  0.2500000000000000  0.3537718466399045   F   F   F
  0.5000000000000000  0.2500000000000000  0.4069457205890302   F   F   F
  0.7500000000000000  0.0000000000000000  0.4069457205890302   F   F   F
  0.5000000000000000  0.0000000000000000  0.4601195945381559   T   T   T
  0.7500000000000000  0.2500000000000000  0.4601195945381559   T   T   T
  0.5000000000000000  0.2500000000000000  0.5132934684872814   T   T   T
  0.7500000000000000  0.0000000000000000  0.5132934684872814   T   T   T
  0.5000000000000000  0.0000000000000000  0.5664673424364071   T   T   T
  0.7500000000000000  0.2500000000000000  0.5664673424364071   T   T   T
  0.5000000000000000  0.2500000000000000  0.6196412163855328   T   T   T
  0.7500000000000000  0.0000000000000000  0.6196412163855328   T   T   T
  0.5000000000000000  0.5000000000000000  0.3537718466399045   F   F   F
  0.7500000000000000  0.7500000000000000  0.3537718466399045   F   F   F
  0.5000000000000000  0.7500000000000000  0.4069457205890302   F   F   F
  0.7500000000000000  0.5000000000000000  0.4069457205890302   F   F   F
  0.5000000000000000  0.5000000000000000  0.4601195945381559   T   T   T
  0.7500000000000000  0.7500000000000000  0.4601195945381559   T   T   T
  0.5000000000000000  0.7500000000000000  0.5132934684872814   T   T   T
  0.7500000000000000  0.5000000000000000  0.5132934684872814   T   T   T
  0.5000000000000000  0.5000000000000000  0.5664673424364071   T   T   T
  0.7500000000000000  0.7500000000000000  0.5664673424364071   T   T   T
  0.5000000000000000  0.7500000000000000  0.6196412163855328   T   T   T
  0.7500000000000000  0.5000000000000000  0.6196412163855328   T   T   T
  0.1250000000000000  0.1250000000000000  0.3803587836144673   F   F   F
  0.3750000000000000  0.3750000000000000  0.4335326575635930   F   F   F
  0.3750000000000000  0.3750000000000000  0.3803587836144673   F   F   F
  0.1250000000000000  0.1250000000000000  0.4335326575635930   F   F   F
  0.1250000000000000  0.3750000000000000  0.4335326575635930   F   F   F
  0.3750000000000000  0.1250000000000000  0.3803587836144673   F   F   F
  0.3750000000000000  0.1250000000000000  0.4335326575635930   F   F   F
  0.1250000000000000  0.3750000000000000  0.3803587836144673   F   F   F
  0.1250000000000000  0.1250000000000000  0.4867065315127187   T   T   T
  0.3750000000000000  0.3750000000000000  0.5398804054618442   T   T   T
  0.3750000000000000  0.3750000000000000  0.4867065315127187   T   T   T
  0.1250000000000000  0.1250000000000000  0.5398804054618442   T   T   T
  0.1250000000000000  0.3750000000000000  0.5398804054618442   T   T   T
  0.3750000000000000  0.1250000000000000  0.4867065315127187   T   T   T
  0.3750000000000000  0.1250000000000000  0.5398804054618442   T   T   T
  0.1250000000000000  0.3750000000000000  0.4867065315127187   T   T   T
  0.1250000000000000  0.1250000000000000  0.5930542794109699   T   T   T
  0.3750000000000000  0.3750000000000000  0.6462281533600955   T   T   T
  0.3750000000000000  0.3750000000000000  0.5930542794109699   T   T   T
  0.1250000000000000  0.3750000000000000  0.6462281533600955   T   T   T
  0.3750000000000000  0.1250000000000000  0.5930542794109699   T   T   T
  0.3750000000000000  0.1250000000000000  0.6462281533600955   T   T   T
  0.1250000000000000  0.3750000000000000  0.5930542794109699   T   T   T
  0.1250000000000000  0.6250000000000001  0.3803587836144673   F   F   F
  0.3750000000000000  0.8750000000000000  0.4335326575635930   F   F   F
  0.3750000000000000  0.8750000000000000  0.3803587836144673   F   F   F
  0.1250000000000000  0.6250000000000001  0.4335326575635930   F   F   F
  0.1250000000000000  0.8750000000000000  0.4335326575635930   F   F   F
  0.3750000000000000  0.6250000000000001  0.3803587836144673   F   F   F
  0.3750000000000000  0.6250000000000001  0.4335326575635930   F   F   F
  0.1250000000000000  0.8750000000000000  0.3803587836144673   F   F   F
  0.1250000000000000  0.6250000000000001  0.4867065315127187   T   T   T
  0.3750000000000000  0.8750000000000000  0.5398804054618442   T   T   T
  0.3750000000000000  0.8750000000000000  0.4867065315127187   T   T   T
  0.1250000000000000  0.6250000000000001  0.5398804054618442   T   T   T
  0.1250000000000000  0.8750000000000000  0.5398804054618442   T   T   T
  0.3750000000000000  0.6250000000000001  0.4867065315127187   T   T   T
  0.3750000000000000  0.6250000000000001  0.5398804054618442   T   T   T
  0.1250000000000000  0.8750000000000000  0.4867065315127187   T   T   T
  0.1250000000000000  0.6250000000000001  0.5930542794109699   T   T   T
  0.3750000000000000  0.8750000000000000  0.6462281533600955   T   T   T
  0.3750000000000000  0.8750000000000000  0.5930542794109699   T   T   T
  0.1250000000000000  0.6250000000000001  0.6462281533600955   T   T   T
  0.1250000000000000  0.8750000000000000  0.6462281533600955   T   T   T
  0.3750000000000000  0.6250000000000001  0.5930542794109699   T   T   T
  0.3750000000000000  0.6250000000000001  0.6462281533600955   T   T   T
  0.1250000000000000  0.8750000000000000  0.5930542794109699   T   T   T
  0.6250000000000001  0.1250000000000000  0.3803587836144673   F   F   F
  0.8750000000000000  0.3750000000000000  0.4335326575635930   F   F   F
  0.8750000000000000  0.3750000000000000  0.3803587836144673   F   F   F
  0.6250000000000001  0.1250000000000000  0.4335326575635930   F   F   F
  0.6250000000000001  0.3750000000000000  0.4335326575635930   F   F   F
  0.8750000000000000  0.1250000000000000  0.3803587836144673   F   F   F
  0.8750000000000000  0.1250000000000000  0.4335326575635930   F   F   F
  0.6250000000000001  0.3750000000000000  0.3803587836144673   F   F   F
  0.6250000000000001  0.1250000000000000  0.4867065315127187   T   T   T
  0.8750000000000000  0.3750000000000000  0.5398804054618442   T   T   T
  0.8750000000000000  0.3750000000000000  0.4867065315127187   T   T   T
  0.6250000000000001  0.1250000000000000  0.5398804054618442   T   T   T
  0.6250000000000001  0.3750000000000000  0.5398804054618442   T   T   T
  0.8750000000000000  0.1250000000000000  0.4867065315127187   T   T   T
  0.8750000000000000  0.1250000000000000  0.5398804054618442   T   T   T
  0.6250000000000001  0.3750000000000000  0.4867065315127187   T   T   T
  0.6250000000000001  0.1250000000000000  0.5930542794109699   T   T   T
  0.8750000000000000  0.3750000000000000  0.6462281533600955   T   T   T
  0.8750000000000000  0.3750000000000000  0.5930542794109699   T   T   T
  0.6250000000000001  0.1250000000000000  0.6462281533600955   T   T   T
  0.6250000000000001  0.3750000000000000  0.6462281533600955   T   T   T
  0.8750000000000000  0.1250000000000000  0.5930542794109699   T   T   T
  0.8750000000000000  0.1250000000000000  0.6462281533600955   T   T   T
  0.6250000000000001  0.3750000000000000  0.5930542794109699   T   T   T
  0.6250000000000001  0.6250000000000001  0.3803587836144673   F   F   F
  0.8750000000000000  0.8750000000000000  0.4335326575635930   F   F   F
  0.8750000000000000  0.8750000000000000  0.3803587836144673   F   F   F
  0.6250000000000001  0.6250000000000001  0.4335326575635930   F   F   F
  0.6250000000000001  0.8750000000000000  0.4335326575635930   F   F   F
  0.8750000000000000  0.6250000000000001  0.3803587836144673   F   F   F
  0.8750000000000000  0.6250000000000001  0.4335326575635930   F   F   F
  0.6250000000000001  0.8750000000000000  0.3803587836144673   F   F   F
  0.6250000000000001  0.6250000000000001  0.4867065315127187   T   T   T
  0.8750000000000000  0.8750000000000000  0.5398804054618442   T   T   T
  0.8750000000000000  0.8750000000000000  0.4867065315127187   T   T   T
  0.6250000000000001  0.6250000000000001  0.5398804054618442   T   T   T
  0.6250000000000001  0.8750000000000000  0.5398804054618442   T   T   T
  0.8750000000000000  0.6250000000000001  0.4867065315127187   T   T   T
  0.8750000000000000  0.6250000000000001  0.5398804054618442   T   T   T
  0.6250000000000001  0.8750000000000000  0.4867065315127187   T   T   T
  0.6250000000000001  0.6250000000000001  0.5930542794109699   T   T   T
  0.8750000000000000  0.8750000000000000  0.6462281533600955   T   T   T
  0.8750000000000000  0.8750000000000000  0.5930542794109699   T   T   T
  0.6250000000000001  0.8750000000000000  0.6462281533600955   T   T   T
  0.8750000000000000  0.6250000000000001  0.5930542794109699   T   T   T
  0.8750000000000000  0.6250000000000001  0.6462281533600955   T   T   T
  0.6250000000000001  0.8750000000000000  0.5930542794109699   T   T   T
  0.1250000000000000  0.1250000000000000  0.6914323337640833   T   T   T
