Ce O  C  N  H 
 1.0000000000000000
    22.9569287580024479    0.0000000000000000    0.0000000000000000
     0.0000000000000000   16.2329999999999970    0.0000000000000000
     0.0000000000000000    0.0000000000000000   47.4784643790012240
 Ce  O   C   N   H  
 108 224  32   4  38
Selective dynamics
Direct
  0.0000000000000000  0.0000000000000000  0.3791192540751390   F   F   F
  0.2500000000000000  0.1666666666666667  0.4194128360500927   F   F   F
  0.0833333333333334  0.1666666666666667  0.4194128360500927   F   F   F
  0.1666666666666667  0.0000000000000000  0.3791192540751390   F   F   F
  0.1666666666666667  0.0000000000000000  0.4597064180250463   F   F   F
  0.0833333333333333  0.1666666666666667  0.4999999999999999   T   T   T
  0.2500000000000000  0.1666666666666667  0.4999999999999999   T   T   T
  0.0000000000000000  0.0000000000000000  0.4597064180250463   F   F   F
  0.0000000000000001  0.0000000000000000  0.5402935819749537   T   T   T
  0.2500000000000000  0.1666666666666667  0.5805871639499074   T   T   T
  0.0833333333333334  0.1666666666666667  0.5805871639499074   T   T   T
  0.1666666666666668  0.0000000000000000  0.5402935819749537   T   T   T
  0.0000000000000000  0.3333333333333334  0.3791192540751390   F   F   F
  0.2500000000000000  0.5000000000000000  0.4194128360500927   F   F   F
  0.0833333333333334  0.5000000000000000  0.4194128360500927   F   F   F
  0.1666666666666667  0.3333333333333334  0.3791192540751390   F   F   F
  0.1666666666666667  0.3333333333333334  0.4597064180250463   F   F   F
  0.0833333333333333  0.5000000000000000  0.4999999999999999   T   T   T
  0.2500000000000000  0.5000000000000000  0.4999999999999999   T   T   T
  0.0000000000000000  0.3333333333333334  0.4597064180250463   F   F   F
  0.0000000000000001  0.3333333333333334  0.5402935819749537   T   T   T
  0.2500000000000000  0.5000000000000000  0.5805871639499074   T   T   T
  0.0833333333333334  0.5000000000000000  0.5805871639499074   T   T   T
  0.1666666666666668  0.3333333333333334  0.5402935819749537   T   T   T
  0.0000000000000000  0.6666666666666667  0.3791192540751390   F   F   F
  0.2500000000000000  0.8333333333333335  0.4194128360500927   F   F   F
  0.0833333333333334  0.8333333333333335  0.4194128360500927   F   F   F
  0.1666666666666667  0.6666666666666667  0.3791192540751390   F   F   F
  0.1666666666666667  0.6666666666666667  0.4597064180250463   F   F   F
  0.0833333333333333  0.8333333333333335  0.4999999999999999   T   T   T
  0.2500000000000000  0.8333333333333335  0.4999999999999999   T   T   T
  0.0000000000000000  0.6666666666666667  0.4597064180250463   F   F   F
  0.0000000000000001  0.6666666666666667  0.5402935819749537   T   T   T
  0.2500000000000000  0.8333333333333335  0.5805871639499074   T   T   T
  0.0833333333333334  0.8333333333333335  0.5805871639499074   T   T   T
  0.1666666666666668  0.6666666666666667  0.5402935819749537   T   T   T
  0.3333333333333334  0.0000000000000000  0.3791192540751390   F   F   F
  0.5833333333333334  0.1666666666666667  0.4194128360500927   F   F   F
  0.4166666666666667  0.1666666666666667  0.4194128360500927   F   F   F
  0.5000000000000000  0.0000000000000000  0.3791192540751390   F   F   F
  0.5000000000000000  0.0000000000000000  0.4597064180250463   F   F   F
  0.4166666666666667  0.1666666666666667  0.4999999999999999   T   T   T
  0.5833333333333334  0.1666666666666667  0.4999999999999999   T   T   T
  0.3333333333333334  0.0000000000000000  0.4597064180250463   F   F   F
  0.3333333333333334  0.0000000000000000  0.5402935819749537   T   T   T
  0.5833333333333334  0.1666666666666667  0.5805871639499074   T   T   T
  0.4166666666666668  0.1666666666666667  0.5805871639499074   T   T   T
  0.5000000000000001  0.0000000000000000  0.5402935819749537   T   T   T
  0.3333333333333334  0.3333333333333334  0.3791192540751390   F   F   F
  0.5833333333333334  0.5000000000000000  0.4194128360500927   F   F   F
  0.4166666666666667  0.5000000000000000  0.4194128360500927   F   F   F
  0.5000000000000000  0.3333333333333334  0.3791192540751390   F   F   F
  0.5000000000000000  0.3333333333333334  0.4597064180250463   F   F   F
  0.4166666666666667  0.5000000000000000  0.4999999999999999   T   T   T
  0.5833333333333334  0.5000000000000000  0.4999999999999999   T   T   T
  0.3333333333333334  0.3333333333333334  0.4597064180250463   F   F   F
  0.3333333333333334  0.3333333333333334  0.5402935819749537   T   T   T
  0.5833333333333334  0.5000000000000000  0.5805871639499074   T   T   T
  0.4166666666666668  0.5000000000000000  0.5805871639499074   T   T   T
  0.5000000000000001  0.3333333333333334  0.5402935819749537   T   T   T
  0.3333333333333334  0.6666666666666667  0.3791192540751390   F   F   F
  0.5833333333333334  0.8333333333333335  0.4194128360500927   F   F   F
  0.4166666666666667  0.8333333333333335  0.4194128360500927   F   F   F
  0.5000000000000000  0.6666666666666667  0.3791192540751390   F   F   F
  0.5000000000000000  0.6666666666666667  0.4597064180250463   F   F   F
  0.4166666666666667  0.8333333333333335  0.4999999999999999   T   T   T
  0.5833333333333334  0.8333333333333335  0.4999999999999999   T   T   T
  0.3333333333333334  0.6666666666666667  0.4597064180250463   F   F   F
  0.3333333333333334  0.6666666666666667  0.5402935819749537   T   T   T
  0.5833333333333334  0.8333333333333335  0.5805871639499074   T   T   T
  0.4166666666666668  0.8333333333333335  0.5805871639499074   T   T   T
  0.5000000000000001  0.6666666666666667  0.5402935819749537   T   T   T
  0.6666666666666667  0.0000000000000000  0.3791192540751390   F   F   F
  0.9166666666666666  0.1666666666666667  0.4194128360500927   F   F   F
  0.7500000000000000  0.1666666666666667  0.4194128360500927   F   F   F
  0.8333333333333334  0.0000000000000000  0.3791192540751390   F   F   F
  0.8333333333333334  0.0000000000000000  0.4597064180250463   F   F   F
  0.7500000000000000  0.1666666666666667  0.4999999999999999   T   T   T
  0.9166666666666666  0.1666666666666667  0.4999999999999999   T   T   T
  0.6666666666666667  0.0000000000000000  0.4597064180250463   F   F   F
  0.6666666666666667  0.0000000000000000  0.5402935819749537   T   T   T
  0.9166666666666666  0.1666666666666667  0.5805871639499074   T   T   T
  0.7500000000000001  0.1666666666666667  0.5805871639499074   T   T   T
  0.8333333333333336  0.0000000000000000  0.5402935819749537   T   T   T
  0.6666666666666667  0.3333333333333334  0.3791192540751390   F   F   F
  0.9166666666666666  0.5000000000000000  0.4194128360500927   F   F   F
  0.7500000000000000  0.5000000000000000  0.4194128360500927   F   F   F
  0.8333333333333334  0.3333333333333334  0.3791192540751390   F   F   F
  0.8333333333333334  0.3333333333333334  0.4597064180250463   F   F   F
  0.7500000000000000  0.5000000000000000  0.4999999999999999   T   T   T
  0.9166666666666666  0.5000000000000000  0.4999999999999999   T   T   T
  0.6666666666666667  0.3333333333333334  0.4597064180250463   F   F   F
  0.6666666666666667  0.3333333333333334  0.5402935819749537   T   T   T
  0.9166666666666666  0.5000000000000000  0.5805871639499074   T   T   T
  0.7500000000000001  0.5000000000000000  0.5805871639499074   T   T   T
  0.8333333333333336  0.3333333333333334  0.5402935819749537   T   T   T
  0.6666666666666667  0.6666666666666667  0.3791192540751390   F   F   F
  0.9166666666666666  0.8333333333333335  0.4194128360500927   F   F   F
  0.7500000000000000  0.8333333333333335  0.4194128360500927   F   F   F
  0.8333333333333334  0.6666666666666667  0.3791192540751390   F   F   F
  0.8333333333333334  0.6666666666666667  0.4597064180250463   F   F   F
  0.7500000000000000  0.8333333333333335  0.4999999999999999   T   T   T
  0.9166666666666666  0.8333333333333335  0.4999999999999999   T   T   T
  0.6666666666666667  0.6666666666666667  0.4597064180250463   F   F   F
  0.6666666666666667  0.6666666666666667  0.5402935819749537   T   T   T
  0.9166666666666666  0.8333333333333335  0.5805871639499074   T   T   T
  0.7500000000000001  0.8333333333333335  0.5805871639499074   T   T   T
  0.8333333333333336  0.6666666666666667  0.5402935819749537   T   T   T
  0.0000000000000000  0.2500000000000000  0.4194128360500927   F   F   F
  0.1666666666666667  0.0833333333333333  0.4194128360500927   F   F   F
  0.0833333333333334  0.0833333333333333  0.3791192540751390   F   F   F
  0.2500000000000000  0.2500000000000000  0.6208807459248611   T   T   T
  0.2500000000000000  0.0833333333333333  0.6208807459248611   T   T   T
  0.0833333333333334  0.2500000000000000  0.3791192540751390   F   F   F
  0.1666666666666667  0.2500000000000000  0.4194128360500927   F   F   F
  0.0000000000000000  0.0833333333333333  0.4194128360500927   F   F   F
  0.1666666666666667  0.2500000000000000  0.4999999999999999   T   T   T
  0.0000000000000001  0.0833333333333333  0.4999999999999999   T   T   T
  0.2500000000000001  0.0833333333333333  0.4597064180250463   F   F   F
  0.0833333333333333  0.2500000000000000  0.4597064180250463   F   F   F
  0.0833333333333333  0.0833333333333333  0.4597064180250463   F   F   F
  0.2500000000000001  0.2500000000000000  0.4597064180250463   F   F   F
  0.0000000000000001  0.2500000000000000  0.4999999999999999   T   T   T
  0.1666666666666667  0.0833333333333333  0.4999999999999999   T   T   T
  0.0000000000000000  0.2500000000000000  0.5805871639499074   T   T   T
  0.1666666666666667  0.0833333333333333  0.5805871639499074   T   T   T
  0.0833333333333333  0.0833333333333333  0.5402935819749536   T   T   T
  0.2500000000000000  0.2500000000000000  0.5402935819749537   T   T   T
  0.2500000000000000  0.0833333333333333  0.5402935819749537   T   T   T
  0.0833333333333333  0.2500000000000000  0.5402935819749536   T   T   T
  0.1666666666666667  0.2500000000000000  0.5805871639499074   T   T   T
  0.0000000000000000  0.0833333333333333  0.5805871639499074   T   T   T
  0.0000000000000000  0.5833333333333334  0.4194128360500927   F   F   F
  0.1666666666666667  0.4166666666666667  0.4194128360500927   F   F   F
  0.0833333333333334  0.4166666666666667  0.3791192540751390   F   F   F
  0.2500000000000000  0.5833333333333334  0.6208807459248611   T   T   T
  0.2500000000000000  0.4166666666666667  0.6208807459248611   T   T   T
  0.0833333333333334  0.5833333333333334  0.3791192540751390   F   F   F
  0.1666666666666667  0.5833333333333334  0.4194128360500927   F   F   F
  0.0000000000000000  0.4166666666666667  0.4194128360500927   F   F   F
  0.1666666666666667  0.5833333333333334  0.4999999999999999   T   T   T
  0.0000000000000001  0.4166666666666667  0.4999999999999999   T   T   T
  0.2500000000000001  0.4166666666666667  0.4597064180250463   F   F   F
  0.0833333333333333  0.5833333333333334  0.4597064180250463   F   F   F
  0.0833333333333333  0.4166666666666667  0.4597064180250463   F   F   F
  0.2500000000000001  0.5833333333333334  0.4597064180250463   F   F   F
  0.0000000000000001  0.5833333333333334  0.4999999999999999   T   T   T
  0.1666666666666667  0.4166666666666667  0.4999999999999999   T   T   T
  0.0000000000000000  0.5833333333333334  0.5805871639499074   T   T   T
  0.1666666666666667  0.4166666666666667  0.5805871639499074   T   T   T
  0.0833333333333333  0.4166666666666667  0.5402935819749536   T   T   T
  0.2500000000000000  0.5833333333333334  0.5402935819749537   T   T   T
  0.2500000000000000  0.4166666666666667  0.5402935819749537   T   T   T
  0.0833333333333333  0.5833333333333334  0.5402935819749536   T   T   T
  0.1666666666666667  0.5833333333333334  0.5805871639499074   T   T   T
  0.0000000000000000  0.4166666666666667  0.5805871639499074   T   T   T
  0.0000000000000000  0.9166666666666667  0.4194128360500927   F   F   F
  0.1666666666666667  0.7500000000000001  0.4194128360500927   F   F   F
  0.0833333333333334  0.7500000000000001  0.3791192540751390   F   F   F
  0.2500000000000000  0.9166666666666667  0.6208807459248611   T   T   T
  0.2500000000000000  0.7500000000000001  0.6208807459248611   T   T   T
  0.0833333333333334  0.9166666666666667  0.3791192540751390   F   F   F
  0.1666666666666667  0.9166666666666667  0.4194128360500927   F   F   F
  0.0000000000000000  0.7500000000000001  0.4194128360500927   F   F   F
  0.1666666666666667  0.9166666666666667  0.4999999999999999   T   T   T
  0.0000000000000001  0.7500000000000001  0.4999999999999999   T   T   T
  0.2500000000000001  0.7500000000000001  0.4597064180250463   F   F   F
  0.0833333333333333  0.9166666666666667  0.4597064180250463   F   F   F
  0.0833333333333333  0.7500000000000001  0.4597064180250463   F   F   F
  0.2500000000000001  0.9166666666666667  0.4597064180250463   F   F   F
  0.0000000000000001  0.9166666666666667  0.4999999999999999   T   T   T
  0.1666666666666667  0.7500000000000001  0.4999999999999999   T   T   T
  0.0000000000000000  0.9166666666666667  0.5805871639499074   T   T   T
  0.1666666666666667  0.7500000000000001  0.5805871639499074   T   T   T
  0.0833333333333333  0.7500000000000001  0.5402935819749536   T   T   T
  0.2500000000000000  0.9166666666666667  0.5402935819749537   T   T   T
  0.2500000000000000  0.7500000000000001  0.5402935819749537   T   T   T
  0.0833333333333333  0.9166666666666667  0.5402935819749536   T   T   T
  0.1666666666666667  0.9166666666666667  0.5805871639499074   T   T   T
  0.0000000000000000  0.7500000000000001  0.5805871639499074   T   T   T
  0.3333333333333334  0.2500000000000000  0.4194128360500927   F   F   F
  0.5000000000000000  0.0833333333333333  0.4194128360500927   F   F   F
  0.4166666666666667  0.0833333333333333  0.3791192540751390   F   F   F
  0.5833333333333334  0.2500000000000000  0.6208807459248611   T   T   T
  0.5833333333333334  0.0833333333333333  0.6208807459248611   T   T   T
  0.4166666666666667  0.2500000000000000  0.3791192540751390   F   F   F
  0.5000000000000000  0.2500000000000000  0.4194128360500927   F   F   F
  0.3333333333333334  0.0833333333333333  0.4194128360500927   F   F   F
  0.5000000000000001  0.2500000000000000  0.4999999999999999   T   T   T
  0.3333333333333334  0.0833333333333333  0.4999999999999999   T   T   T
  0.5833333333333334  0.0833333333333333  0.4597064180250463   F   F   F
  0.4166666666666667  0.2500000000000000  0.4597064180250463   F   F   F
  0.4166666666666667  0.0833333333333333  0.4597064180250463   F   F   F
  0.5833333333333334  0.2500000000000000  0.4597064180250463   F   F   F
  0.3333333333333334  0.2500000000000000  0.4999999999999999   T   T   T
  0.5000000000000001  0.0833333333333333  0.4999999999999999   T   T   T
  0.3333333333333334  0.2500000000000000  0.5805871639499074   T   T   T
  0.5000000000000000  0.0833333333333333  0.5805871639499074   T   T   T
  0.4166666666666667  0.0833333333333333  0.5402935819749536   T   T   T
  0.5833333333333334  0.2500000000000000  0.5402935819749537   T   T   T
  0.5833333333333334  0.0833333333333333  0.5402935819749537   T   T   T
  0.4166666666666667  0.2500000000000000  0.5402935819749536   T   T   T
  0.5000000000000000  0.2500000000000000  0.5805871639499074   T   T   T
  0.3333333333333334  0.0833333333333333  0.5805871639499074   T   T   T
  0.3333333333333334  0.5833333333333334  0.4194128360500927   F   F   F
  0.5000000000000000  0.4166666666666667  0.4194128360500927   F   F   F
  0.4166666666666667  0.4166666666666667  0.3791192540751390   F   F   F
  0.5833333333333334  0.5833333333333334  0.6208807459248611   T   T   T
  0.5833333333333334  0.4166666666666667  0.6208807459248611   T   T   T
  0.4166666666666667  0.5833333333333334  0.3791192540751390   F   F   F
  0.5000000000000000  0.5833333333333334  0.4194128360500927   F   F   F
  0.3333333333333334  0.4166666666666667  0.4194128360500927   F   F   F
  0.5000000000000001  0.5833333333333334  0.4999999999999999   T   T   T
  0.3333333333333334  0.4166666666666667  0.4999999999999999   T   T   T
  0.5833333333333334  0.4166666666666667  0.4597064180250463   F   F   F
  0.4166666666666667  0.5833333333333334  0.4597064180250463   F   F   F
  0.4166666666666667  0.4166666666666667  0.4597064180250463   F   F   F
  0.5833333333333334  0.5833333333333334  0.4597064180250463   F   F   F
  0.3333333333333334  0.5833333333333334  0.4999999999999999   T   T   T
  0.5000000000000001  0.4166666666666667  0.4999999999999999   T   T   T
  0.3333333333333334  0.5833333333333334  0.5805871639499074   T   T   T
  0.5000000000000000  0.4166666666666667  0.5805871639499074   T   T   T
  0.4166666666666667  0.4166666666666667  0.5402935819749536   T   T   T
  0.5833333333333334  0.5833333333333334  0.5402935819749537   T   T   T
  0.5833333333333334  0.4166666666666667  0.5402935819749537   T   T   T
  0.4166666666666667  0.5833333333333334  0.5402935819749536   T   T   T
  0.5000000000000000  0.5833333333333334  0.5805871639499074   T   T   T
  0.3333333333333334  0.4166666666666667  0.5805871639499074   T   T   T
  0.3333333333333334  0.9166666666666667  0.4194128360500927   F   F   F
  0.5000000000000000  0.7500000000000001  0.4194128360500927   F   F   F
  0.4166666666666667  0.7500000000000001  0.3791192540751390   F   F   F
  0.5833333333333334  0.9166666666666667  0.6208807459248611   T   T   T
  0.5833333333333334  0.7500000000000001  0.6208807459248611   T   T   T
  0.4166666666666667  0.9166666666666667  0.3791192540751390   F   F   F
  0.5000000000000000  0.9166666666666667  0.4194128360500927   F   F   F
  0.3333333333333334  0.7500000000000001  0.4194128360500927   F   F   F
  0.5000000000000001  0.9166666666666667  0.4999999999999999   T   T   T
  0.3333333333333334  0.7500000000000001  0.4999999999999999   T   T   T
  0.5833333333333334  0.7500000000000001  0.4597064180250463   F   F   F
  0.4166666666666667  0.9166666666666667  0.4597064180250463   F   F   F
  0.4166666666666667  0.7500000000000001  0.4597064180250463   F   F   F
  0.5833333333333334  0.9166666666666667  0.4597064180250463   F   F   F
  0.3333333333333334  0.9166666666666667  0.4999999999999999   T   T   T
  0.5000000000000001  0.7500000000000001  0.4999999999999999   T   T   T
  0.3333333333333334  0.9166666666666667  0.5805871639499074   T   T   T
  0.5000000000000000  0.7500000000000001  0.5805871639499074   T   T   T
  0.4166666666666667  0.7500000000000001  0.5402935819749536   T   T   T
  0.5833333333333334  0.9166666666666667  0.5402935819749537   T   T   T
  0.5833333333333334  0.7500000000000001  0.5402935819749537   T   T   T
  0.4166666666666667  0.9166666666666667  0.5402935819749536   T   T   T
  0.5000000000000000  0.9166666666666667  0.5805871639499074   T   T   T
  0.3333333333333334  0.7500000000000001  0.5805871639499074   T   T   T
  0.6666666666666667  0.2500000000000000  0.4194128360500927   F   F   F
  0.8333333333333334  0.0833333333333333  0.4194128360500927   F   F   F
  0.7500000000000000  0.0833333333333333  0.3791192540751390   F   F   F
  0.9166666666666666  0.2500000000000000  0.6208807459248611   T   T   T
  0.9166666666666666  0.0833333333333333  0.6208807459248611   T   T   T
  0.7500000000000000  0.2500000000000000  0.3791192540751390   F   F   F
  0.8333333333333334  0.2500000000000000  0.4194128360500927   F   F   F
  0.6666666666666667  0.0833333333333333  0.4194128360500927   F   F   F
  0.8333333333333334  0.2500000000000000  0.4999999999999999   T   T   T
  0.6666666666666667  0.0833333333333333  0.4999999999999999   T   T   T
  0.9166666666666669  0.0833333333333333  0.4597064180250463   F   F   F
  0.7500000000000000  0.2500000000000000  0.4597064180250463   F   F   F
  0.7500000000000000  0.0833333333333333  0.4597064180250463   F   F   F
  0.9166666666666669  0.2500000000000000  0.4597064180250463   F   F   F
  0.6666666666666667  0.2500000000000000  0.4999999999999999   T   T   T
  0.8333333333333334  0.0833333333333333  0.4999999999999999   T   T   T
  0.6666666666666667  0.2500000000000000  0.5805871639499074   T   T   T
  0.8333333333333334  0.0833333333333333  0.5805871639499074   T   T   T
  0.7500000000000000  0.0833333333333333  0.5402935819749536   T   T   T
  0.9166666666666666  0.2500000000000000  0.5402935819749537   T   T   T
  0.9166666666666666  0.0833333333333333  0.5402935819749537   T   T   T
  0.7500000000000000  0.2500000000000000  0.5402935819749536   T   T   T
  0.8333333333333334  0.2500000000000000  0.5805871639499074   T   T   T
  0.6666666666666667  0.0833333333333333  0.5805871639499074   T   T   T
  0.6666666666666667  0.5833333333333334  0.4194128360500927   F   F   F
  0.8333333333333334  0.4166666666666667  0.4194128360500927   F   F   F
  0.7500000000000000  0.4166666666666667  0.3791192540751390   F   F   F
  0.9166666666666666  0.5833333333333334  0.6208807459248611   T   T   T
  0.9166666666666666  0.4166666666666667  0.6208807459248611   T   T   T
  0.7500000000000000  0.5833333333333334  0.3791192540751390   F   F   F
  0.8333333333333334  0.5833333333333334  0.4194128360500927   F   F   F
  0.6666666666666667  0.4166666666666667  0.4194128360500927   F   F   F
  0.8333333333333334  0.5833333333333334  0.4999999999999999   T   T   T
  0.6666666666666667  0.4166666666666667  0.4999999999999999   T   T   T
  0.9166666666666669  0.4166666666666667  0.4597064180250463   F   F   F
  0.7500000000000000  0.5833333333333334  0.4597064180250463   F   F   F
  0.7500000000000000  0.4166666666666667  0.4597064180250463   F   F   F
  0.9166666666666669  0.5833333333333334  0.4597064180250463   F   F   F
  0.6666666666666667  0.5833333333333334  0.4999999999999999   T   T   T
  0.8333333333333334  0.4166666666666667  0.4999999999999999   T   T   T
  0.6666666666666667  0.5833333333333334  0.5805871639499074   T   T   T
  0.8333333333333334  0.4166666666666667  0.5805871639499074   T   T   T
  0.7500000000000000  0.4166666666666667  0.5402935819749536   T   T   T
  0.9166666666666666  0.5833333333333334  0.5402935819749537   T   T   T
  0.9166666666666666  0.4166666666666667  0.5402935819749537   T   T   T
  0.7500000000000000  0.5833333333333334  0.5402935819749536   T   T   T
  0.8333333333333334  0.5833333333333334  0.5805871639499074   T   T   T
  0.6666666666666667  0.4166666666666667  0.5805871639499074   T   T   T
  0.6666666666666667  0.9166666666666667  0.4194128360500927   F   F   F
  0.8333333333333334  0.7500000000000001  0.4194128360500927   F   F   F
  0.7500000000000000  0.7500000000000001  0.3791192540751390   F   F   F
  0.9166666666666666  0.9166666666666667  0.6208807459248611   T   T   T
  0.9166666666666666  0.7500000000000001  0.6208807459248611   T   T   T
  0.7500000000000000  0.9166666666666667  0.3791192540751390   F   F   F
  0.8333333333333334  0.9166666666666667  0.4194128360500927   F   F   F
  0.6666666666666667  0.7500000000000001  0.4194128360500927   F   F   F
  0.8333333333333334  0.9166666666666667  0.4999999999999999   T   T   T
  0.6666666666666667  0.7500000000000001  0.4999999999999999   T   T   T
  0.9166666666666669  0.7500000000000001  0.4597064180250463   F   F   F
  0.7500000000000000  0.9166666666666667  0.4597064180250463   F   F   F
  0.7500000000000000  0.7500000000000001  0.4597064180250463   F   F   F
  0.9166666666666669  0.9166666666666667  0.4597064180250463   F   F   F
  0.6666666666666667  0.9166666666666667  0.4999999999999999   T   T   T
  0.8333333333333334  0.7500000000000001  0.4999999999999999   T   T   T
  0.6666666666666667  0.9166666666666667  0.5805871639499074   T   T   T
  0.8333333333333334  0.7500000000000001  0.5805871639499074   T   T   T
  0.7500000000000000  0.7500000000000001  0.5402935819749536   T   T   T
  0.9166666666666666  0.9166666666666667  0.5402935819749537   T   T   T
  0.9166666666666666  0.7500000000000001  0.5402935819749537   T   T   T
  0.7500000000000000  0.9166666666666667  0.5402935819749536   T   T   T
  0.8333333333333334  0.9166666666666667  0.5805871639499074   T   T   T
  0.6666666666666667  0.7500000000000001  0.5805871639499074   T   T   T
  0.1837388432684875  0.6760832540732953  0.7272459833137853   T   T   T
  0.2884993363539988  0.6310618264630586  0.7013931926768749   T   T   T
  0.4077195864728476  0.3431975253333936  0.6728595392655830   T   T   T
  0.5119836626985859  0.4294195475556222  0.6809838827690358   T   T   T
  0.5858348584952318  0.7572175838983739  0.6927105138724201   T   T   T
  0.6731458398931925  0.7036918083667340  0.7275520339613312   T   T   T
  0.7001066060228066  0.5345389274750535  0.8322925079503520   T   T   T
  0.8070766454132091  0.4835249638149079  0.8088786210326799   T   T   T
  0.2849695880967997  0.3296627313775093  0.7731698631948589   T   T   T
  0.3167285943920906  0.4125753549354327  0.7753497566294223   T   T   T
  0.2831610095769658  0.4823556353457601  0.7615540203311303   T   T   T
  0.2304204256090381  0.5072758175648227  0.7738622719472732   T   T   T
  0.1980608718280918  0.5715427682594979  0.7623353603518900   T   T   T
  0.2175698378361511  0.6124493057188279  0.7383026663787997   T   T   T
  0.2704253130480006  0.5894175882817473  0.7256469288374701   T   T   T
  0.3041356377203207  0.5250454607766716  0.7374657165513662   T   T   T
  0.4088257503789580  0.6035342469992878  0.7793774775159035   T   T   T
  0.4128067951273020  0.6219463252685224  0.7476311564923486   T   T   T
  0.4125844464051153  0.5455551669578932  0.7287805098597506   T   T   T
  0.3600122850170734  0.5014126314596987  0.7240376408481880   T   T   T
  0.3592355877623824  0.4345629302397769  0.7054270770037681   T   T   T
  0.4095696830880315  0.4098410308260994  0.6913662603201021   T   T   T
  0.4618321225705689  0.4523642498946130  0.6956749456616346   T   T   T
  0.4640373580850402  0.5192476714766532  0.7145472597641829   T   T   T
  0.5975371148983559  0.3804074599646920  0.7362728827328722   T   T   T
  0.5594824524297252  0.4472020691486947  0.7497814726192024   T   T   T
  0.5662362516047130  0.5304330345900862  0.7351816090666623   T   T   T
  0.5205497658709057  0.5624779861237086  0.7181719355261773   T   T   T
  0.5283458885535739  0.6367069857747037  0.7036527476884260   T   T   T
  0.5792797621297736  0.6824374481142282  0.7068017161621721   T   T   T
  0.6238488257638779  0.6540161434236887  0.7242621891846189   T   T   T
  0.6183624740641397  0.5772716317907527  0.7381743477521973   T   T   T
  0.7637254275334748  0.4416789828708671  0.7014826962256641   T   T   T
  0.7298112407056289  0.5169445839180190  0.7123492991770367   T   T   T
  0.7205909367374845  0.5195125015622273  0.7441227490270913   T   T   T
  0.6672636287317719  0.5475655031747305  0.7559588587454347   T   T   T
  0.6611889012474811  0.5524574404383256  0.7853207622583559   T   T   T
  0.7070432932685095  0.5303215042524492  0.8031580569230948   T   T   T
  0.7602221390522114  0.5046807817228567  0.7916352669048520   T   T   T
  0.7669993380845097  0.5005318665727484  0.7624215222678858   T   T   T
  0.2795140350559415  0.3036195729633804  0.7438625913925714   T   T   T
  0.4569202881118993  0.5526838877147734  0.7894782053965286   T   T   T
  0.5768708865253815  0.2986991526743937  0.7443259933331771   T   T   T
  0.7345813458357330  0.3649474835218741  0.7091505132228210   T   T   T
  0.2462618515307461  0.3381576596424863  0.7345144283094810   T   T   T
  0.2652012307635406  0.2424696904670684  0.7438016066368864   T   T   T
  0.3107108693276050  0.2828852408297602  0.7849180430750863   T   T   T
  0.2412144915584850  0.3332851084171603  0.7831707809849183   T   T   T
  0.3226575035825650  0.4276107897522687  0.7980112227777557   T   T   T
  0.3611987091746110  0.4056151789535185  0.7665236657587541   T   T   T
  0.2142943523538297  0.4768711771718522  0.7926092126420743   T   T   T
  0.1574368683717151  0.5896333364398216  0.7721305952859184   T   T   T
  0.1957593548623773  0.7079961501915151  0.7098599895392587   T   T   T
  0.3257045783745003  0.6173573209465171  0.6909545854734409   T   T   T
  0.4527245134751815  0.4937470289025543  0.7809080008434710   T   T   T
  0.4962999537836332  0.5781655181191973  0.7826709727503535   T   T   T
  0.3669815454683004  0.5735720017387230  0.7846725944025449   T   T   T
  0.4095981731048098  0.6629884365729902  0.7909691698527609   T   T   T
  0.4516918728604683  0.6608842737518656  0.7440989737400147   T   T   T
  0.3755684436051788  0.6620135011925863  0.7417715428911327   T   T   T
  0.3188219340857822  0.4022698840448329  0.7014128914998216   T   T   T
  0.3704405744157473  0.3113853213678442  0.6693406930131884   T   T   T
  0.5125257945882359  0.3817686061809754  0.6672175436451558   T   T   T
  0.5377331837335093  0.2874565183127701  0.7337062186524705   T   T   T
  0.6068279406289491  0.2555857058606353  0.7367050564449437   T   T   T
  0.6428830694506040  0.3876512276492849  0.7438279224866537   T   T   T
  0.5975446702868812  0.3861649989403342  0.7129409687087768   T   T   T
  0.5136030671895857  0.4261513767700639  0.7494145783442490   T   T   T
  0.5705766996471477  0.4527110432882399  0.7724406344623311   T   T   T
  0.4938953727045672  0.6600001899774577  0.6902248569674849   T   T   T
  0.5542640323054061  0.7797695175183437  0.6799390340924596   T   T   T
  0.7064366523973094  0.6896136817965831  0.7406659373406255   T   T   T
  0.7441271356960635  0.3520547417178818  0.7302283872356747   T   T   T
  0.7534786523652843  0.3174954147036405  0.6973896189724657   T   T   T
  0.7658966371093536  0.4460448565055963  0.6781231016937437   T   T   T
  0.8094012927899046  0.4417106023858842  0.7092137799553604   T   T   T
  0.7535604109160088  0.5736209545742662  0.7060253841006868   T   T   T
  0.6874464416903007  0.5173472775108259  0.7010757707093926   T   T   T
  0.6207338019041780  0.5744887085799633  0.7943606432076152   T   T   T
  0.6621303091775960  0.5530658337090313  0.8411392923360761   T   T   T
  0.8044761777182339  0.4856391440461983  0.8301640454967705   T   T   T
  0.8090371556364232  0.4826316087890084  0.7542038605096628   T   T   T
