GAFF2 resin plus CeO2(111)/PDA coordinate interface precursor

3100 atoms
2988 bonds
4902 angles
7656 dihedrals
1548 impropers

16 atom types
16 bond types
28 angle types
17 dihedral types
2 improper types

0.0 90.00000000 xlo xhi
0.0 90.00000000 ylo yhi
0.0 91.88365389 zlo zhi

Masses

1 12.01000000 # c
2 12.01000000 # c3
3 12.01000000 # ca
4 1.00800000 # h1
5 1.00800000 # ha
6 1.00800000 # hc
7 1.00800000 # hn
8 1.00800000 # ho
9 14.01000000 # n
10 14.01000000 # ns
11 14.01000000 # nv
12 16.00000000 # o
13 16.00000000 # oh
14 16.00000000 # os
15 140.11600000 # Ce4+ provisional core
16 15.99900000 # O2- provisional ion

Pair Coeffs

1 0.0988000000 3.3152123100 # c
2 0.1078000001 3.3977095313 # c3
3 0.0988000000 3.3152123100 # ca
4 0.0208000000 2.4219972552 # h1
5 0.0161000000 2.6254785220 # ha
6 0.0208000001 2.6001769981 # hc
7 0.0100000000 1.1064962075 # hn
8 0.0047000000 0.5379246461 # ho
9 0.1636000001 3.1808647828 # n
10 0.1173999999 3.2699546553 # ns
11 0.1119999999 3.3681316941 # nv
12 0.1463000002 3.0481208738 # o
13 0.0930000001 3.2428713335 # oh
14 0.0725999997 3.1560978003 # os
15 0.0100000000 3.0000000000 # Ce4+ provisional LJ readability term
16 0.1500000000 3.0000000000 # O2- provisional LJ readability term

Bond Coeffs

1 232.5000000000 1.5380000000
2 250.3000000000 1.5160000000
3 263.8000000000 1.4620000000
4 272.7000000000 1.4910000000
5 315.2000000000 1.4120000000
6 347.1000000000 1.3860000000
7 356.2000000000 1.3790000000
8 357.5000000000 1.3700000000
9 365.6000000000 1.3640000000
10 375.9000000000 1.0970000000
11 378.6000000000 1.3980000000
12 395.7000000000 1.0860000000
13 527.3000000000 1.0130000000
14 529.5000000000 1.0120000000
15 563.5000000000 0.9730000000
16 652.6000000000 1.2180000000

Angle Coeffs

1 38.8000000000 108.4600466000
2 39.0000000000 107.5800458800
3 39.5000000000 115.1200495700
4 46.1000000000 117.6800502100
5 46.8000000000 109.8000470600
6 46.9000000000 109.5600470700
7 47.3000000000 110.4700472900
8 48.7000000000 117.5500506700
9 48.7000000000 119.8800511500
10 48.8000000000 116.0700496900
11 50.7000000000 108.5800463100
12 61.5000000000 108.8800464300
13 65.2000000000 112.0700479700
14 65.3000000000 120.6900519000
15 65.6000000000 120.7700517000
16 65.6000000000 127.0800542300
17 65.7000000000 123.7100528500
18 66.4000000000 120.3300516300
19 67.1000000000 119.8900515500
20 68.8000000000 120.0200516700
21 83.2000000000 111.6100476600
22 85.4000000000 115.2500496800
23 85.6000000000 120.1900516800
24 86.2000000000 120.9500521200
25 86.2000000000 122.6000525400
26 87.2000000000 119.9000513900
27 87.3000000000 119.2000510900
28 113.8000000000 123.0500530200

Dihedral Coeffs

1 1 0.0000000000 2 0.0000000000
2 1 0.0000000000 2 180.0000770000
3 1 0.1000000000 4 180.0000770000
4 1 0.1555555600 3 0.0000000000
5 1 0.1700000000 3 0.0000000000
6 1 0.2100000000 3 0.0000000000
7 1 0.2450000000 2 180.0000770000
8 1 0.5225000000 2 180.0000770000
9 1 0.8350000000 2 180.0000770000
10 1 0.9000000000 2 180.0000770000
11 1 0.9500000000 2 180.0000770000
12 1 1.0000000000 2 180.0000770000
13 1 1.0200000000 1 180.0000770000
14 1 1.0500000000 2 180.0000770000
15 1 2.0000000000 1 0.0000000000
16 1 2.5000000000 2 180.0000770000
17 1 3.6250000000 2 180.0000770000

Improper Coeffs

1 1.1000000000 -1 2
2 10.5000000000 -1 2

Atoms # full

1 1 11 -0.3582950001 25.5630000000 42.6670000000 77.5826538931
2 1 3 0.0234370000 24.3800000000 43.2260000000 77.0056538931
3 1 3 -0.0387380000 23.5900000000 44.1190000000 77.7396538931
4 1 3 -0.0294010000 22.4460000000 44.6820000000 77.1666538931
5 1 3 0.0821059998 22.0660000000 44.3480000000 75.8616538931
6 1 14 -0.3104650000 20.9250000000 44.9570000000 75.3166538931
7 1 3 0.0821070002 20.1580000000 44.4500000000 74.2576538931
8 1 3 -0.0293580000 19.9460000000 43.0730000000 74.0966538931
9 1 3 -0.0373880000 19.2470000000 42.5900000000 72.9926538931
10 1 3 0.0441750000 18.7360000000 43.4770000000 72.0316538931
11 1 9 -0.2015900002 18.1180000000 42.9730000000 70.8366538931
12 1 3 -0.0373880000 18.8710000000 44.8610000000 72.2396538931
13 1 3 -0.0293580000 19.5730000000 45.3410000000 73.3486538931
14 1 3 -0.0294010000 22.8670000000 43.4580000000 75.1226538931
15 1 3 -0.0387380000 24.0090000000 42.8960000000 75.6966538931
16 1 7 0.1426590002 26.1740000000 42.0160000000 77.0356538931
17 1 7 0.1426590002 25.8300000000 42.8900000000 78.5676538931
18 1 5 0.0643380001 23.8670000000 44.3850000000 78.7506538931
19 1 5 0.0651340001 21.8560000000 45.3850000000 77.7406538931
20 1 5 0.0651340001 20.3350000000 42.3750000000 74.8196538931
21 1 5 0.0643810002 19.1060000000 41.5210000000 72.8886538931
22 1 5 0.0643810002 18.4780000000 45.5700000000 71.5206538931
23 1 5 0.0651340001 19.7020000000 46.4060000000 73.4796538931
24 1 5 0.0651340001 22.6280000000 43.2150000000 74.0966538931
25 1 5 0.0643380001 24.6130000000 42.2130000000 75.1156538931
26 1 12 -0.2708210001 19.4520000000 41.0480000000 70.3816538931
27 1 1 0.2576279998 18.4510000000 41.7710000000 70.1286538931
28 1 1 0.2575330002 16.9810000000 43.4900000000 70.1366538931
29 1 12 -0.2708220000 16.4020000000 44.5700000000 70.4186538931
30 1 3 0.0508320000 16.6080000000 42.5990000000 69.0486538931
31 1 3 -0.0462120000 15.5460000000 42.6520000000 68.1486538931
32 1 3 -0.0304090000 15.4280000000 41.6150000000 67.2036538931
33 1 3 0.0828099998 16.3790000000 40.5670000000 67.1686538931
34 1 14 -0.3104160002 16.2660000000 39.5470000000 66.2226538931
35 1 3 0.0828099998 17.0730000000 39.4570000000 65.0806538931
36 1 3 -0.0304090000 17.1870000000 38.2060000000 64.4356538931
37 1 3 -0.0462120000 17.9770000000 38.0580000000 63.2816538931
38 1 3 0.0508320000 18.6360000000 39.1820000000 62.7916538931
39 1 1 0.2575350000 19.5390000000 39.3300000000 61.6596538931
40 1 12 -0.2708220000 19.8570000000 38.4150000000 60.8546538931
41 1 1 0.2576290002 19.3550000000 41.3510000000 62.6646538931
42 1 12 -0.2708210001 19.5450000000 42.5570000000 62.9746538931
43 1 3 0.0532590000 18.5230000000 40.4100000000 63.4046538931
44 1 3 -0.0178270000 17.7530000000 40.5820000000 64.5566538931
45 1 3 -0.0178270000 17.4300000000 40.5350000000 68.1016538931
46 1 3 0.0532590000 17.5100000000 41.5570000000 69.0376538931
47 1 5 0.0632240003 14.8310000000 43.4630000000 68.1756538931
48 1 5 0.0650900002 14.6110000000 41.6300000000 66.4976538931
49 1 5 0.0650900002 16.6940000000 37.3400000000 64.8486538931
50 1 5 0.0632240003 18.0800000000 37.0940000000 62.7966538931
51 1 5 0.0659250001 17.6840000000 41.5540000000 65.0246538931
52 1 5 0.0659250001 18.1490000000 39.7300000000 68.1076538931
53 1 9 -0.2014969998 19.9900000000 40.6850000000 61.5666538931
54 1 3 0.0466670000 20.9730000000 41.2220000000 60.6656538931
55 1 3 -0.0177280000 22.0990000000 40.4640000000 60.3216538931
56 1 3 0.0466670000 23.0840000000 40.9690000000 59.4526538931
57 1 9 -0.2014969998 24.2960000000 40.2210000000 59.1876538931
58 1 3 -0.0272890000 22.8890000000 42.2450000000 58.8946538931
59 1 3 0.0407920000 21.7820000000 43.0340000000 59.2556538931
60 1 1 0.2430250001 21.6180000000 44.4080000000 58.7296538931
61 1 12 -0.2719520000 20.4560000000 44.8830000000 58.5956538931
62 1 10 -0.3110300001 22.7590000000 45.2210000000 58.4106538931
63 1 2 0.0153250000 22.6290000000 46.6360000000 58.0696538931
64 1 2 -0.0121040000 22.4370000000 47.4640000000 59.3416538931
65 1 3 -0.0436850000 22.1980000000 48.9120000000 59.0126538931
66 1 3 -0.0561990001 23.2800000000 49.7870000000 58.8346538931
67 1 3 -0.0291020000 23.0550000000 51.1300000000 58.5196538931
68 1 3 0.1012170000 21.7510000000 51.6140000000 58.3726538931
69 1 13 -0.3582220000 21.5590000000 52.9620000000 58.0706538931
70 1 3 0.1014749999 20.6620000000 50.7400000000 58.5306538931
71 1 13 -0.3582139999 19.3580000000 51.2120000000 58.3726538931
72 1 3 -0.0261000000 20.8890000000 49.3910000000 58.8446538931
73 1 3 -0.0272890000 20.8250000000 42.5110000000 60.1386538931
74 1 5 0.0663080001 22.2190000000 39.5010000000 60.7826538931
75 1 5 0.0651200002 23.5860000000 42.6180000000 58.1616538931
76 1 7 0.1496919999 23.7210000000 44.8470000000 58.5616538931
77 1 4 0.0470310000 21.7740000000 46.7830000000 57.3766538931
78 1 4 0.0470310000 23.5490000000 46.9690000000 57.5466538931
79 1 6 0.0332140000 21.5760000000 47.0640000000 59.9226538931
80 1 6 0.0332140000 23.3380000000 47.3650000000 59.9856538931
81 1 5 0.0626650000 24.2980000000 49.4320000000 58.9406538931
82 1 5 0.0651460002 23.8960000000 51.7990000000 58.3946538931
83 1 8 0.2183780000 20.6340000000 53.3620000000 57.9626538931
84 1 8 0.2183780000 18.5580000000 50.5980000000 58.4806538931
85 1 5 0.0654309999 20.0480000000 48.7200000000 58.9706538931
86 1 5 0.0651200002 19.9600000000 43.1030000000 60.4136538931
87 1 12 -0.2708210001 23.7040000000 37.9640000000 59.6966538931
88 1 1 0.2576290002 24.5710000000 38.8750000000 59.6126538931
89 1 1 0.2575350000 25.6120000000 40.7850000000 59.0326538931
90 1 12 -0.2708220000 25.8480000000 41.9780000000 58.7066538931
91 1 3 0.0508320000 26.6350000000 39.8180000000 59.4086538931
92 1 3 -0.0462120000 28.0160000000 39.9590000000 59.5136538931
93 1 3 -0.0304090000 28.7410000000 38.9240000000 60.1316538931
94 1 3 0.0828099998 28.0660000000 37.8040000000 60.6766538931
95 1 14 -0.3104160002 28.7440000000 36.8540000000 61.4486538931
96 1 3 0.0828099998 29.2180000000 37.0980000000 62.7506538931
97 1 3 -0.0304090000 29.4210000000 38.4140000000 63.2516538931
98 1 3 -0.0462120000 29.8020000000 38.6260000000 64.5836538931
99 1 3 0.0508320000 29.9810000000 37.5150000000 65.3996538931
100 1 1 0.2575330002 30.1660000000 37.4310000000 66.8386538931
101 1 12 -0.2708220000 30.3280000000 38.4170000000 67.6056538931
102 1 1 0.2576279998 29.8980000000 35.3310000000 66.0616538931
103 1 12 -0.2708210001 29.7310000000 34.0840000000 66.0086538931
104 1 3 0.0532590000 29.8160000000 36.2360000000 64.9206538931
105 1 3 -0.0178270000 29.4480000000 35.9940000000 63.5976538931
106 1 3 -0.0178270000 26.6830000000 37.6480000000 60.4656538931
107 1 3 0.0532590000 25.9970000000 38.6740000000 59.8156538931
108 1 5 0.0632240003 28.5120000000 40.8480000000 59.1546538931
109 1 5 0.0650900002 29.8120000000 39.0190000000 60.2446538931
110 1 5 0.0650900002 29.2810000000 39.2800000000 62.6296538931
111 1 5 0.0632240003 29.9140000000 39.6300000000 64.9736538931
112 1 5 0.0659250001 29.2720000000 34.9830000000 63.2526538931
113 1 5 0.0659250001 26.1520000000 36.7920000000 60.8656538931
114 1 9 -0.2015900002 30.1010000000 36.0680000000 67.2776538931
115 1 3 0.0441750000 29.6430000000 35.6220000000 68.5666538931
116 1 3 -0.0373880000 30.0520000000 34.3770000000 69.0686538931
117 1 3 -0.0293580000 29.5170000000 33.8860000000 70.2656538931
118 1 3 0.0821070002 28.5610000000 34.6260000000 70.9706538931
119 1 14 -0.3104650000 27.9940000000 34.0740000000 72.1316538931
120 1 3 0.0821070002 26.6810000000 34.2990000000 72.5786538931
121 1 3 -0.0293580000 25.6320000000 34.5900000000 71.6886538931
122 1 3 -0.0373880000 24.3420000000 34.8280000000 72.1706538931
123 1 3 0.0441750000 24.0690000000 34.7540000000 73.5476538931
124 1 9 -0.2015900002 22.7460000000 35.0300000000 74.0496538931
125 1 3 -0.0373880000 25.1100000000 34.4250000000 74.4286538931
126 1 3 -0.0293580000 26.4010000000 34.1880000000 73.9456538931
127 1 3 -0.0293580000 28.2060000000 35.9040000000 70.5096538931
128 1 3 -0.0373880000 28.7260000000 36.3880000000 69.3076538931
129 1 5 0.0643810002 30.7700000000 33.7800000000 68.5216538931
130 1 5 0.0651340001 29.8170000000 32.9110000000 70.6296538931
131 1 5 0.0651340001 25.8090000000 34.6260000000 70.6216538931
132 1 5 0.0643810002 23.5680000000 35.0990000000 71.4656538931
133 1 5 0.0643810002 24.9180000000 34.3360000000 75.4886538931
134 1 5 0.0651340001 27.1890000000 33.9270000000 74.6366538931
135 1 5 0.0651340001 27.5140000000 36.5190000000 71.0696538931
136 1 5 0.0643810002 28.3860000000 37.3480000000 68.9476538931
137 1 12 -0.2708210001 21.3440000000 34.1860000000 72.3186538931
138 1 1 0.2576279998 21.5070000000 34.9110000000 73.3366538931
139 1 1 0.2575330002 22.4220000000 35.8590000000 75.1706538931
140 1 12 -0.2708220000 23.2390000000 36.1980000000 76.0666538931
141 1 3 0.0508320000 21.0200000000 36.2550000000 75.1146538931
142 1 3 -0.0462120000 20.2770000000 37.0720000000 75.9606538931
143 1 3 -0.0304090000 18.9340000000 37.3160000000 75.6326538931
144 1 3 0.0828099998 18.3470000000 36.7280000000 74.4846538931
145 1 14 -0.3104160002 16.9850000000 36.9660000000 74.2556538931
146 1 3 0.0828099998 16.2520000000 36.6310000000 73.1096538931
147 1 3 -0.0304090000 14.9500000000 36.1190000000 73.2886538931
148 1 3 -0.0462120000 14.1640000000 35.7450000000 72.1906538931
149 1 3 0.0508320000 14.6910000000 35.9310000000 70.9176538931
150 1 1 0.2575330002 14.0780000000 35.7420000000 69.6106538931
151 1 12 -0.2708220000 12.9240000000 35.2780000000 69.4106538931
152 1 1 0.2576279998 16.0910000000 36.6930000000 69.2836538931
153 1 12 -0.2708210001 17.0720000000 37.2560000000 68.7336538931
154 1 3 0.0532590000 15.9290000000 36.4960000000 70.7236538931
155 1 3 -0.0178270000 16.7420000000 36.8600000000 71.7996538931
156 1 3 -0.0178270000 19.1250000000 35.8830000000 73.6586538931
157 1 3 0.0532590000 20.4630000000 35.6830000000 73.9956538931
158 1 5 0.0632240003 20.7220000000 37.5120000000 76.8406538931
159 1 5 0.0650900002 18.3430000000 37.9540000000 76.2776538931
160 1 5 0.0650900002 14.5510000000 36.0100000000 74.2856538931
161 1 5 0.0632240003 13.1680000000 35.3410000000 72.3296538931
162 1 5 0.0659250001 17.7030000000 37.3310000000 71.6306538931
163 1 5 0.0659250001 18.7100000000 35.3900000000 72.7916538931
164 1 9 -0.2015900002 14.9480000000 36.2000000000 68.5716538931
165 1 3 0.0441750000 14.4540000000 36.7710000000 67.3566538931
166 1 3 -0.0373880000 14.5530000000 36.0610000000 66.1546538931
167 1 3 -0.0293580000 14.0100000000 36.5950000000 64.9796538931
168 1 3 0.0821070002 13.3770000000 37.8450000000 64.9896538931
169 1 14 -0.3104650000 12.8470000000 38.3450000000 63.7886538931
170 1 3 0.0821070002 12.5650000000 39.6960000000 63.5416538931
171 1 3 -0.0293580000 13.4440000000 40.7100000000 63.9506538931
172 1 3 -0.0373880000 13.0910000000 42.0540000000 63.7976538931
173 1 3 0.0441750000 11.8810000000 42.4020000000 63.1836538931
174 1 9 -0.2015900002 11.4760000000 43.7780000000 63.1286538931
175 1 3 -0.0373880000 11.0480000000 41.3840000000 62.6856538931
176 1 3 -0.0293580000 11.3950000000 40.0400000000 62.8626538931
177 1 3 -0.0293580000 13.2550000000 38.5410000000 66.2086538931
178 1 3 -0.0373880000 13.7950000000 38.0060000000 67.3806538931
179 1 5 0.0643810002 15.0440000000 35.0960000000 66.1256538931
180 1 5 0.0651340001 14.0980000000 36.0430000000 64.0516538931
181 1 5 0.0651340001 14.3880000000 40.4560000000 64.4046538931
182 1 5 0.0643810002 13.7630000000 42.8250000000 64.1526538931
183 1 5 0.0643810002 10.1100000000 41.6250000000 62.2076538931
184 1 5 0.0651340001 10.7250000000 39.2670000000 62.5166538931
185 1 5 0.0651340001 12.7290000000 39.4860000000 66.2636538931
186 1 5 0.0643810002 13.6920000000 38.5500000000 68.3116538931
187 1 12 -0.2708210001 11.9870000000 44.4670000000 65.3516538931
188 1 1 0.2576279998 11.4670000000 44.6960000000 64.2256538931
189 1 1 0.2575330002 10.6990000000 44.4280000000 62.1146538931
190 1 12 -0.2708220000 10.4890000000 43.9530000000 60.9676538931
191 1 3 0.0508320000 10.2510000000 45.7390000000 62.5866538931
192 1 3 -0.0462120000 9.5120000000 46.7390000000 61.9566538931
193 1 3 -0.0304090000 9.2440000000 47.9200000000 62.6786538931
194 1 3 0.0828099998 9.6970000000 48.0730000000 64.0086538931
195 1 14 -0.3104160002 9.4190000000 49.2660000000 64.6956538931
196 1 3 0.0828099998 9.4130000000 49.3690000000 66.0916538931
197 1 3 -0.0304090000 8.6680000000 48.4570000000 66.8786538931
198 1 3 -0.0462120000 8.7250000000 48.5100000000 68.2806538931
199 1 3 0.0508320000 9.5300000000 49.4840000000 68.8656538931
200 1 1 0.2575330002 9.9290000000 49.6680000000 70.2536538931
201 1 12 -0.2708220000 9.4970000000 48.9940000000 71.2286538931
202 1 1 0.2576279998 11.0730000000 51.1620000000 69.0136538931
203 1 12 -0.2708210001 11.8920000000 52.0510000000 68.6606538931
204 1 3 0.0532590000 10.2270000000 50.3960000000 68.1066538931
205 1 3 -0.0178270000 10.1780000000 50.3750000000 66.7146538931
206 1 3 -0.0178270000 10.4500000000 47.0400000000 64.6106538931
207 1 3 0.0532590000 10.7190000000 45.8950000000 63.8706538931
208 1 5 0.0632240003 9.1620000000 46.6190000000 60.9366538931
209 1 5 0.0650900002 8.6790000000 48.7160000000 62.2126538931
210 1 5 0.0650900002 8.0710000000 47.6920000000 66.3996538931
211 1 5 0.0632240003 8.2000000000 47.7820000000 68.8846538931
212 1 5 0.0659250001 10.7640000000 51.0690000000 66.1266538931
213 1 5 0.0659250001 10.8400000000 47.1330000000 65.6146538931
214 1 9 -0.2015900002 10.9040000000 50.7130000000 70.3636538931
215 1 3 0.0441750000 11.9070000000 50.8320000000 71.3886538931
216 1 3 -0.0373880000 12.4070000000 49.6920000000 72.0376538931
217 1 3 -0.0293580000 13.4580000000 49.7930000000 72.9486538931
218 1 3 0.0821070002 14.0100000000 51.0510000000 73.2576538931
219 1 14 -0.3104650000 15.1010000000 51.1990000000 74.1306538931
220 1 3 0.0821070002 15.5460000000 50.2510000000 75.0666538931
221 1 3 -0.0293580000 14.6510000000 49.4850000000 75.8316538931
222 1 3 -0.0373880000 15.1320000000 48.5360000000 76.7396538931
223 1 3 0.0441750000 16.5150000000 48.3630000000 76.9246538931
224 1 9 -0.2015900002 17.0160000000 47.3560000000 77.8226538931
225 1 3 -0.0373880000 17.4030000000 49.1640000000 76.1906538931
226 1 3 -0.0293580000 16.9230000000 50.1010000000 75.2716538931
227 1 3 -0.0293580000 13.4970000000 52.1920000000 72.6286538931
228 1 3 -0.0373880000 12.4580000000 52.0830000000 71.6956538931
229 1 5 0.0643810002 12.0070000000 48.7140000000 71.8116538931
230 1 5 0.0651340001 13.8610000000 48.8850000000 73.3766538931
231 1 5 0.0651340001 13.5790000000 49.6190000000 75.7246538931
232 1 5 0.0643810002 14.4200000000 47.9300000000 77.2876538931
233 1 5 0.0643810002 18.4740000000 49.0650000000 76.3276538931
234 1 5 0.0651340001 17.6200000000 50.7060000000 74.7076538931
235 1 5 0.0651340001 13.9180000000 53.1640000000 72.8466538931
236 1 5 0.0643810002 12.0900000000 52.9760000000 71.2106538931
237 1 12 -0.2708210001 18.8800000000 46.5300000000 76.5906538931
238 1 1 0.2576279998 18.1110000000 46.4660000000 77.5846538931
239 1 1 0.2575330002 16.4100000000 46.8640000000 79.0246538931
240 1 12 -0.2708220000 15.4200000000 47.3900000000 79.5936538931
241 1 3 0.0508320000 17.1350000000 45.6920000000 79.5046538931
242 1 3 -0.0462120000 16.9250000000 44.8820000000 80.6196538931
243 1 3 -0.0304090000 17.7870000000 43.7880000000 80.8146538931
244 1 3 0.0828099998 18.8210000000 43.5080000000 79.8876538931
245 1 14 -0.3104160002 19.6670000000 42.4170000000 80.1346538931
246 1 3 0.0828099998 20.3790000000 41.7200000000 79.1496538931
247 1 3 -0.0304090000 19.7790000000 41.3660000000 77.9136538931
248 1 3 -0.0462120000 20.5010000000 40.6450000000 76.9476538931
249 1 3 0.0508320000 21.8250000000 40.3170000000 77.2276538931
250 1 1 0.2575330002 22.8190000000 39.6010000000 76.4376538931
251 1 12 -0.2708220000 22.6360000000 39.1630000000 75.2706538931
252 1 1 0.2576279998 23.7560000000 40.0980000000 78.4366538931
253 1 12 -0.2708210001 24.5850000000 40.2280000000 79.3746538931
254 1 3 0.0532590000 22.4000000000 40.6320000000 78.4366538931
255 1 3 -0.0178270000 21.7010000000 41.3260000000 79.4216538931
256 1 3 -0.0178270000 19.0060000000 44.3510000000 78.7676538931
257 1 3 0.0532590000 18.1600000000 45.4440000000 78.6196538931
258 1 5 0.0632240003 16.1200000000 45.0890000000 81.3116538931
259 1 5 0.0650900002 17.6480000000 43.1450000000 81.6736538931
260 1 5 0.0650900002 18.7540000000 41.6380000000 77.7106538931
261 1 5 0.0632240003 20.0410000000 40.3520000000 76.0136538931
262 1 5 0.0659250001 22.1690000000 41.5620000000 80.3676538931
263 1 5 0.0659250001 19.7910000000 44.1710000000 78.0476538931
264 1 9 -0.2015900002 24.0330000000 39.4470000000 77.1866538931
265 1 3 0.0441750000 25.1550000000 38.6000000000 76.8626538931
266 1 3 -0.0373880000 25.8370000000 37.9010000000 77.8736538931
267 1 3 -0.0293580000 26.9140000000 37.0730000000 77.5586538931
268 1 3 0.0821070002 27.3360000000 36.9270000000 76.2366538931
269 1 14 -0.3104650000 28.4130000000 36.0670000000 75.9736538931
270 1 3 0.0821070002 29.3180000000 36.1680000000 74.9086538931
271 1 3 -0.0293580000 29.9800000000 35.0080000000 74.4886538931
272 1 3 -0.0373880000 30.9050000000 35.0560000000 73.4416538931
273 1 3 0.0441750000 31.1910000000 36.2710000000 72.8026538931
274 1 9 -0.2015900002 32.1390000000 36.3160000000 71.7216538931
275 1 3 -0.0373880000 30.5500000000 37.4420000000 73.2406538931
276 1 3 -0.0293580000 29.6290000000 37.3920000000 74.2926538931
277 1 3 -0.0293580000 26.6410000000 37.5970000000 75.2166538931
278 1 3 -0.0373880000 25.5690000000 38.4400000000 75.5296538931
279 1 5 0.0643810002 25.5240000000 37.9670000000 78.9076538931
280 1 5 0.0651340001 27.4260000000 36.5370000000 78.3476538931
281 1 5 0.0651340001 29.7690000000 34.0630000000 74.9716538931
282 1 5 0.0643810002 31.3750000000 34.1380000000 73.1126538931
283 1 5 0.0643810002 30.7930000000 38.3980000000 72.7986538931
284 1 5 0.0651340001 29.1850000000 38.3140000000 74.6406538931
285 1 5 0.0651340001 26.9110000000 37.4590000000 74.1766538931
286 1 5 0.0643810002 25.0760000000 38.9730000000 74.7296538931
287 1 12 -0.2708210001 31.2080000000 37.9950000000 70.3136538931
288 1 1 0.2576279998 32.1220000000 37.1710000000 70.5736538931
289 1 1 0.2575330002 33.3860000000 35.6190000000 71.6316538931
290 1 12 -0.2708220000 33.8220000000 34.8230000000 72.5046538931
291 1 3 0.0508320000 34.1060000000 36.0360000000 70.4326538931
292 1 3 -0.0462120000 35.3840000000 35.7110000000 69.9846538931
293 1 3 -0.0304090000 35.8640000000 36.3600000000 68.8326538931
294 1 3 0.0828099998 35.0610000000 37.2970000000 68.1436538931
295 1 14 -0.3104160002 35.5890000000 37.9460000000 67.0216538931
296 1 3 0.0828099998 34.8150000000 38.3130000000 65.9176538931
297 1 3 -0.0304090000 34.1670000000 37.3220000000 65.1426538931
298 1 3 -0.0462120000 33.4320000000 37.6740000000 63.9966538931
299 1 3 0.0508320000 33.3510000000 39.0230000000 63.6666538931
300 1 1 0.2575330002 32.6100000000 39.6940000000 62.6096538931
301 1 12 -0.2708220000 31.9820000000 39.1110000000 61.6866538931
302 1 1 0.2576279998 33.5200000000 41.2860000000 63.9106538931
303 1 12 -0.2708210001 33.8320000000 42.4070000000 64.3986538931
304 1 3 0.0532590000 33.9340000000 39.9950000000 64.4456538931
305 1 3 -0.0178270000 34.6950000000 39.6720000000 65.5676538931
306 1 3 -0.0178270000 33.7670000000 37.6030000000 68.6206538931
307 1 3 0.0532590000 33.3290000000 36.9680000000 69.7816538931
308 1 5 0.0632240003 36.0030000000 35.0030000000 70.5176538931
309 1 5 0.0650900002 36.8610000000 36.1430000000 68.4706538931
310 1 5 0.0650900002 34.2470000000 36.2800000000 65.4216538931
311 1 5 0.0632240003 32.9280000000 36.9230000000 63.4056538931
312 1 5 0.0659250001 35.1600000000 40.4450000000 66.1626538931
313 1 5 0.0659250001 33.1540000000 38.3530000000 68.1366538931
314 1 9 -0.2015900002 32.6730000000 41.1170000000 62.7656538931
315 1 3 0.0441750000 31.5560000000 41.9600000000 62.4446538931
316 1 3 -0.0373880000 31.1640000000 42.1250000000 61.1056538931
317 1 3 -0.0293580000 29.9470000000 42.7480000000 60.7996538931
318 1 3 0.0821070002 29.0890000000 43.1470000000 61.8336538931
319 1 14 -0.3104650000 27.7660000000 43.5040000000 61.5466538931
320 1 3 0.0821070002 26.6730000000 42.7530000000 62.0146538931
321 1 3 -0.0293580000 26.8400000000 41.4390000000 62.4836538931
322 1 3 -0.0373880000 25.7570000000 40.7070000000 62.9546538931
323 1 3 0.0441750000 24.4760000000 41.2680000000 62.9646538931
324 1 9 -0.2015900002 23.3650000000 40.5100000000 63.4646538931
325 1 3 -0.0373880000 24.2940000000 42.5760000000 62.4826538931
326 1 3 -0.0293580000 25.3860000000 43.3110000000 62.0016538931
327 1 3 -0.0293580000 29.5260000000 43.0800000000 63.1646538931
328 1 3 -0.0373880000 30.7550000000 42.4900000000 63.4686538931
329 1 5 0.0643810002 31.7740000000 41.7210000000 60.3076538931
330 1 5 0.0651340001 29.6310000000 42.8350000000 59.7696538931
331 1 5 0.0651340001 27.8090000000 40.9710000000 62.4756538931
332 1 5 0.0643810002 25.9240000000 39.7010000000 63.3176538931
333 1 5 0.0643810002 23.3030000000 43.0130000000 62.4636538931
334 1 5 0.0651340001 25.2370000000 44.3150000000 61.6276538931
335 1 5 0.0651340001 28.8760000000 43.4110000000 63.9656538931
336 1 5 0.0643810002 31.0350000000 42.3650000000 64.5066538931
337 1 12 -0.2708210001 23.8270000000 38.3450000000 62.5786538931
338 1 1 0.2576279998 23.1580000000 39.0990000000 63.3346538931
339 1 1 0.2575330002 22.4510000000 40.9070000000 64.4916538931
340 1 12 -0.2708220000 22.3610000000 42.0760000000 64.9546538931
341 1 3 0.0508320000 21.6820000000 39.7510000000 64.9526538931
342 1 3 -0.0462120000 20.7170000000 39.6290000000 65.9486538931
343 1 3 -0.0304090000 20.1440000000 38.3610000000 66.1566538931
344 1 3 0.0828099998 20.5300000000 37.2500000000 65.3616538931
345 1 14 -0.3104160002 19.8980000000 36.0090000000 65.4946538931
346 1 3 0.0828099998 19.5120000000 35.4570000000 66.7196538931
347 1 3 -0.0304090000 20.3140000000 35.6210000000 67.8796538931
348 1 3 -0.0462120000 19.9560000000 35.0010000000 69.0856538931
349 1 3 0.0508320000 18.7930000000 34.2380000000 69.1096538931
350 1 1 0.2575350000 18.1730000000 33.4840000000 70.1906538931
351 1 12 -0.2708220000 18.6960000000 33.2670000000 71.3146538931
352 1 1 0.2576290002 16.8380000000 33.3010000000 68.3756538931
353 1 12 -0.2708210001 15.8590000000 33.0440000000 67.6276538931
354 1 3 0.0532590000 17.9960000000 34.1000000000 67.9966538931
355 1 3 -0.0178270000 18.3340000000 34.6900000000 66.7806538931
356 1 3 -0.0178270000 21.5290000000 37.4020000000 64.3856538931
357 1 3 0.0532590000 22.0970000000 38.6610000000 64.2206538931
358 1 5 0.0632240003 20.3970000000 40.4860000000 66.5316538931
359 1 5 0.0650900002 19.3750000000 38.2440000000 66.9056538931
360 1 5 0.0650900002 21.2320000000 36.1930000000 67.8396538931
361 1 5 0.0632240003 20.5690000000 35.1170000000 69.9676538931
362 1 5 0.0659250001 17.7040000000 34.5640000000 65.9106538931
363 1 5 0.0659250001 21.8440000000 36.5640000000 63.7776538931
364 1 9 -0.2014969998 16.9370000000 32.9090000000 69.7506538931
365 1 3 0.0466670000 15.9010000000 32.3310000000 70.5696538931
366 1 3 -0.0177280000 15.7750000000 32.7000000000 71.9156538931
367 1 3 0.0466670000 14.7580000000 32.1630000000 72.7146538931
368 1 9 -0.2014969998 14.6290000000 32.5620000000 74.0916538931
369 1 3 -0.0272890000 13.8340000000 31.2740000000 72.1486538931
370 1 3 0.0407920000 13.9450000000 30.8830000000 70.8006538931
371 1 1 0.2430250001 12.9480000000 29.9800000000 70.1686538931
372 1 12 -0.2719520000 12.9220000000 29.8740000000 68.9126538931
373 1 10 -0.3110300001 11.9980000000 29.2410000000 70.9526538931
374 1 2 0.0153250000 10.7730000000 28.7010000000 70.3666538931
375 1 2 -0.0121040000 9.8190000000 29.8370000000 69.9786538931
376 1 3 -0.0436850000 8.5650000000 29.2950000000 69.3506538931
377 1 3 -0.0561990001 7.4260000000 29.0540000000 70.1306538931
378 1 3 -0.0291020000 6.2660000000 28.5350000000 69.5476538931
379 1 3 0.1012170000 6.2370000000 28.2360000000 68.1786538931
380 1 13 -0.3582220000 5.0670000000 27.7200000000 67.6226538931
381 1 3 0.1014749999 7.3800000000 28.4600000000 67.3936538931
382 1 13 -0.3582139999 7.3610000000 28.1620000000 66.0326538931
383 1 3 -0.0261000000 8.5400000000 28.9850000000 67.9826538931
384 1 3 -0.0272890000 14.9920000000 31.4120000000 70.0256538931
385 1 5 0.0663080001 16.4290000000 33.4550000000 72.3286538931
386 1 5 0.0651200002 13.0290000000 30.9040000000 72.7676538931
387 1 7 0.1496919999 12.2000000000 29.0270000000 71.9546538931
388 1 4 0.0470310000 11.0270000000 28.0840000000 69.4746538931
389 1 4 0.0470310000 10.2740000000 28.0410000000 71.1106538931
390 1 6 0.0332140000 10.3170000000 30.5220000000 69.2606538931
391 1 6 0.0332140000 9.5690000000 30.4390000000 70.8826538931
392 1 5 0.0626650000 7.4350000000 29.2630000000 71.1936538931
393 1 5 0.0651460002 5.3910000000 28.3560000000 70.1596538931
394 1 8 0.2183780000 5.0000000000 27.4740000000 66.6426538931
395 1 8 0.2183780000 8.1720000000 28.3130000000 65.4436538931
396 1 5 0.0654309999 9.4240000000 29.1450000000 67.3776538931
397 1 5 0.0651200002 15.1070000000 31.1000000000 68.9956538931
398 1 12 -0.2708210001 16.9100000000 32.7590000000 74.7666538931
399 1 1 0.2576290002 15.6880000000 33.0160000000 74.9466538931
400 1 1 0.2575350000 13.4460000000 33.1040000000 74.6876538931
401 1 12 -0.2708220000 12.2920000000 33.0090000000 74.1926538931
402 1 3 0.0508320000 13.7860000000 33.8740000000 75.8776538931
403 1 3 -0.0462120000 12.9940000000 34.7140000000 76.6586538931
404 1 3 -0.0304090000 13.6300000000 35.5200000000 77.6176538931
405 1 3 0.0828099998 15.0370000000 35.4860000000 77.7616538931
406 1 14 -0.3104160002 15.6660000000 36.3690000000 78.6436538931
407 1 3 0.0828099998 15.7550000000 37.7460000000 78.3936538931
408 1 3 -0.0304090000 15.9940000000 38.6260000000 79.4726538931
409 1 3 -0.0462120000 16.0670000000 40.0160000000 79.2646538931
410 1 3 0.0508320000 15.9380000000 40.4910000000 77.9626538931
411 1 1 0.2575330002 15.9490000000 41.8490000000 77.4336538931
412 1 12 -0.2708220000 15.9820000000 42.8940000000 78.1326538931
413 1 1 0.2576279998 15.6970000000 40.4370000000 75.6846538931
414 1 12 -0.2708210001 15.6410000000 39.9740000000 74.5146538931
415 1 3 0.0532590000 15.7490000000 39.6370000000 76.9016538931
416 1 3 -0.0178270000 15.6260000000 38.2640000000 77.0846538931
417 1 3 -0.0178270000 15.8120000000 34.6130000000 76.9756538931
418 1 3 0.0532590000 15.1540000000 33.8230000000 76.0336538931
419 1 5 0.0632240003 11.9260000000 34.7820000000 76.4986538931
420 1 5 0.0650900002 13.0440000000 36.2030000000 78.2186538931
421 1 5 0.0650900002 16.1050000000 38.2300000000 80.4776538931
422 1 5 0.0632240003 16.2230000000 40.6980000000 80.0916538931
423 1 5 0.0659250001 15.4470000000 37.6160000000 76.2376538931
424 1 5 0.0659250001 16.8930000000 34.6180000000 77.0436538931
425 1 9 -0.2015900002 15.8220000000 41.8280000000 76.0036538931
426 1 3 0.0441750000 15.7300000000 42.9590000000 75.1136538931
427 1 3 -0.0373880000 16.3630000000 44.1700000000 75.4296538931
428 1 3 -0.0293580000 16.2150000000 45.2920000000 74.6096538931
429 1 3 0.0821070002 15.4530000000 45.2230000000 73.4406538931
430 1 14 -0.3104650000 15.3580000000 46.3820000000 72.6496538931
431 1 3 0.0821059998 14.4730000000 46.6020000000 71.5836538931
432 1 3 -0.0294010000 14.9260000000 47.3510000000 70.4936538931
433 1 3 -0.0387380000 14.0990000000 47.5700000000 69.3906538931
434 1 3 0.0234370000 12.7980000000 47.0530000000 69.3756538931
435 1 11 -0.3582950001 11.9600000000 47.2560000000 68.2376538931
436 1 3 -0.0387380000 12.3250000000 46.3340000000 70.4816538931
437 1 3 -0.0294010000 13.1490000000 46.1270000000 71.5916538931
438 1 3 -0.0293580000 14.8710000000 43.9920000000 73.0806538931
439 1 3 -0.0373880000 14.9920000000 42.8800000000 73.9186538931
440 1 5 0.0643810002 16.9900000000 44.2460000000 76.3066538931
441 1 5 0.0651340001 16.7080000000 46.2200000000 74.8686538931
442 1 5 0.0651340001 15.9350000000 47.7430000000 70.4956538931
443 1 5 0.0643380001 14.4750000000 48.1350000000 68.5476538931
444 1 7 0.1426590002 11.0180000000 46.8120000000 68.1886538931
445 1 7 0.1426590002 12.2810000000 47.8390000000 67.4316538931
446 1 5 0.0643380001 11.3100000000 45.9590000000 70.4926538931
447 1 5 0.0651340001 12.7500000000 45.6120000000 72.4586538931
448 1 5 0.0651340001 14.3410000000 43.8730000000 72.1466538931
449 1 5 0.0643810002 14.4860000000 41.9680000000 73.6336538931
450 2 11 -0.3582950001 62.2600000000 14.1820000000 74.7006538931
451 2 3 0.0234370000 62.4660000000 15.5670000000 74.4126538931
452 2 3 -0.0387380000 63.5220000000 16.2650000000 75.0106538931
453 2 3 -0.0294010000 63.7360000000 17.6130000000 74.7096538931
454 2 3 0.0821059998 62.8900000000 18.2870000000 73.8236538931
455 2 14 -0.3104650000 63.1570000000 19.6340000000 73.5296538931
456 2 3 0.0821070002 62.2230000000 20.5640000000 73.0516538931
457 2 3 -0.0293580000 60.8840000000 20.5430000000 73.4676538931
458 2 3 -0.0373880000 59.9600000000 21.4280000000 72.9186538931
459 2 3 0.0441750000 60.3580000000 22.3610000000 71.9476538931
460 2 9 -0.2015900002 59.3830000000 23.1920000000 71.2986538931
461 2 3 -0.0373880000 61.7180000000 22.4420000000 71.5966538931
462 2 3 -0.0293580000 62.6420000000 21.5510000000 72.1506538931
463 2 3 -0.0294010000 61.8350000000 17.5820000000 73.2156538931
464 2 3 -0.0387380000 61.6220000000 16.2350000000 73.5166538931
465 2 7 0.1426590002 61.4870000000 13.6450000000 74.2416538931
466 2 7 0.1426590002 62.8710000000 13.6860000000 75.3876538931
467 2 5 0.0643380001 64.1840000000 15.7600000000 75.7016538931
468 2 5 0.0651340001 64.5690000000 18.1330000000 75.1666538931
469 2 5 0.0651340001 60.5560000000 19.8310000000 74.2076538931
470 2 5 0.0643810002 58.9300000000 21.3830000000 73.2506538931
471 2 5 0.0643810002 62.0570000000 23.1580000000 70.8586538931
472 2 5 0.0651340001 63.6780000000 21.5990000000 71.8456538931
473 2 5 0.0651340001 61.1910000000 18.0600000000 72.4906538931
474 2 5 0.0643380001 60.8060000000 15.7080000000 73.0426538931
475 2 12 -0.2708210001 57.5270000000 21.7040000000 71.1166538931
476 2 1 0.2576279998 58.0240000000 22.8550000000 70.9886538931
477 2 1 0.2575330002 59.5060000000 24.5630000000 70.9006538931
478 2 12 -0.2708220000 60.5690000000 25.2310000000 70.9686538931
479 2 3 0.0508320000 58.2340000000 25.0590000000 70.3966538931
480 2 3 -0.0462120000 57.8570000000 26.3270000000 69.9616538931
481 2 3 -0.0304090000 56.5260000000 26.5140000000 69.5436538931
482 2 3 0.0828099998 55.6140000000 25.4310000000 69.5526538931
483 2 14 -0.3104160002 54.2990000000 25.6170000000 69.1256538931
484 2 3 0.0828099998 53.8170000000 25.1800000000 67.8846538931
485 2 3 -0.0304090000 52.4240000000 25.0190000000 67.7226538931
486 2 3 -0.0462120000 51.8840000000 24.5910000000 66.4966538931
487 2 3 0.0508320000 52.7630000000 24.3360000000 65.4486538931
488 2 1 0.2575350000 52.5100000000 23.8520000000 64.0996538931
489 2 12 -0.2708220000 51.3750000000 23.6140000000 63.6096538931
490 2 1 0.2576290002 54.7470000000 24.1210000000 64.3276538931
491 2 12 -0.2708210001 55.9870000000 24.0860000000 64.1096538931
492 2 3 0.0532590000 54.1230000000 24.5000000000 65.5906538931
493 2 3 -0.0178270000 54.6860000000 24.9150000000 66.7976538931
494 2 3 -0.0178270000 56.0230000000 24.1660000000 70.0116538931
495 2 3 0.0532590000 57.3350000000 24.0150000000 70.4396538931
496 2 5 0.0632240003 58.5640000000 27.1450000000 69.9476538931
497 2 5 0.0650900002 56.2070000000 27.4890000000 69.2066538931
498 2 5 0.0650900002 51.7610000000 25.1910000000 68.5566538931
499 2 5 0.0632240003 50.8160000000 24.4500000000 66.3776538931
500 2 5 0.0659250001 55.7570000000 25.0310000000 66.8886538931
501 2 5 0.0659250001 55.3350000000 23.3360000000 70.0506538931
502 2 9 -0.2014969998 53.7440000000 23.7200000000 63.3866538931
503 2 3 0.0466670000 53.9450000000 23.1690000000 62.0746538931
504 2 3 -0.0177280000 53.1890000000 22.0690000000 61.6516538931
505 2 3 0.0466670000 53.3730000000 21.5010000000 60.3776538931
506 2 9 -0.2014969998 52.6620000000 20.2990000000 59.9896538931
507 2 3 -0.0272890000 54.3080000000 22.0950000000 59.5116538931
508 2 3 0.0407920000 55.1010000000 23.1780000000 59.9316538931
509 2 1 0.2430250001 56.1400000000 23.7520000000 59.0486538931
510 2 12 -0.2719520000 56.4470000000 24.9710000000 59.1676538931
511 2 10 -0.3110300001 56.8340000000 22.9360000000 58.0906538931
512 2 2 0.0153250000 57.9870000000 23.4320000000 57.3426538931
513 2 2 -0.0121040000 59.2360000000 23.3980000000 58.2256538931
514 2 3 -0.0436850000 60.4170000000 24.0010000000 57.5146538931
515 2 3 -0.0561990001 61.2190000000 23.2090000000 56.6786538931
516 2 3 -0.0291020000 62.3100000000 23.7730000000 56.0106538931
517 2 3 0.1012170000 62.6100000000 25.1310000000 56.1636538931
518 2 13 -0.3582220000 63.7120000000 25.6610000000 55.4946538931
519 2 3 0.1014749999 61.8000000000 25.9340000000 56.9846538931
520 2 13 -0.3582139999 62.0840000000 27.2930000000 57.1326538931
521 2 3 -0.0261000000 60.7030000000 25.3680000000 57.6536538931
522 2 3 -0.0272890000 54.9080000000 23.7130000000 61.2146538931
523 2 5 0.0663080001 52.4960000000 21.6350000000 62.3486538931
524 2 5 0.0651200002 54.4050000000 21.7300000000 58.5016538931
525 2 7 0.1496919999 56.6150000000 21.9190000000 58.0206538931
526 2 4 0.0470310000 57.7920000000 24.4640000000 56.9846538931
527 2 4 0.0470310000 58.1460000000 22.7890000000 56.4526538931
528 2 6 0.0332140000 59.0430000000 23.9560000000 59.1696538931
529 2 6 0.0332140000 59.4600000000 22.3470000000 58.5086538931
530 2 5 0.0626650000 61.0030000000 22.1560000000 56.5426538931
531 2 5 0.0651460002 62.9290000000 23.1520000000 55.3766538931
532 2 8 0.2183780000 63.9760000000 26.6360000000 55.5806538931
533 2 8 0.2183780000 61.5120000000 27.8900000000 57.7186538931
534 2 5 0.0654309999 60.0830000000 25.9870000000 58.2886538931
535 2 5 0.0651200002 55.5020000000 24.5560000000 61.5456538931
536 2 12 -0.2708210001 50.7560000000 20.2660000000 61.4296538931
537 2 1 0.2576290002 51.6150000000 19.6560000000 60.7376538931
538 2 1 0.2575350000 53.2030000000 19.2220000000 59.2016538931
539 2 12 -0.2708220000 54.1830000000 19.3290000000 58.4186538931
540 2 3 0.0508320000 52.5330000000 17.9670000000 59.5146538931
541 2 3 -0.0462120000 52.7950000000 16.6700000000 59.0786538931
542 2 3 -0.0304090000 52.1390000000 15.6090000000 59.7276538931
543 2 3 0.0828099998 51.2840000000 15.8640000000 60.8286538931
544 2 14 -0.3104160002 50.7640000000 14.8180000000 61.5996538931
545 2 3 0.0828099998 51.5330000000 14.0400000000 62.4836538931
546 2 3 -0.0304090000 52.9500000000 13.9570000000 62.3876538931
547 2 3 -0.0462120000 53.6970000000 13.2500000000 63.3406538931
548 2 3 0.0508320000 53.0120000000 12.6280000000 64.3786538931
549 2 1 0.2575330002 53.5170000000 12.0160000000 65.5956538931
550 2 12 -0.2708220000 54.7350000000 11.8290000000 65.8616538931
551 2 1 0.2576279998 51.2690000000 12.0870000000 65.7486538931
552 2 12 -0.2708210001 50.0940000000 12.0180000000 66.1976538931
553 2 3 0.0532590000 51.6410000000 12.6740000000 64.4676538931
554 2 3 -0.0178270000 50.8720000000 13.3610000000 63.5276538931
555 2 3 -0.0178270000 50.9670000000 17.1910000000 61.1786538931
556 2 3 0.0532590000 51.6050000000 18.2220000000 60.4906538931
557 2 5 0.0632240003 53.5000000000 16.4850000000 58.2826538931
558 2 5 0.0650900002 52.3410000000 14.5930000000 59.4236538931
559 2 5 0.0650900002 53.4880000000 14.4390000000 61.5906538931
560 2 5 0.0632240003 54.7780000000 13.2260000000 63.2886538931
561 2 5 0.0659250001 49.7970000000 13.4310000000 63.6436538931
562 2 5 0.0659250001 50.3060000000 17.4040000000 62.0106538931
563 2 9 -0.2015900002 52.4370000000 11.6830000000 66.4786538931
564 2 3 0.0441750000 52.5090000000 11.6460000000 67.9146538931
565 2 3 -0.0373880000 51.5940000000 10.8750000000 68.6476538931
566 2 3 -0.0293580000 51.5820000000 10.9280000000 70.0466538931
567 2 3 0.0821070002 52.4760000000 11.7590000000 70.7306538931
568 2 14 -0.3104650000 52.3920000000 11.8410000000 72.1306538931
569 2 3 0.0821070002 52.6890000000 12.9830000000 72.8956538931
570 2 3 -0.0293580000 52.5350000000 14.2830000000 72.3806538931
571 2 3 -0.0373880000 52.8580000000 15.3950000000 73.1636538931
572 2 3 0.0441750000 53.3170000000 15.2320000000 74.4816538931
573 2 9 -0.2015900002 53.6820000000 16.3750000000 75.2796538931
574 2 3 -0.0373880000 53.4320000000 13.9350000000 75.0036538931
575 2 3 -0.0293580000 53.1090000000 12.8220000000 74.2206538931
576 2 3 -0.0293580000 53.4410000000 12.4750000000 70.0046538931
577 2 3 -0.0373880000 53.4440000000 12.4350000000 68.6086538931
578 2 5 0.0643810002 50.8780000000 10.2470000000 68.1316538931
579 2 5 0.0651340001 50.8530000000 10.3510000000 70.6006538931
580 2 5 0.0651340001 52.1570000000 14.4380000000 71.3786538931
581 2 5 0.0643810002 52.7770000000 16.3790000000 72.7226538931
582 2 5 0.0643810002 53.7570000000 13.7850000000 76.0246538931
583 2 5 0.0651340001 53.1950000000 11.8300000000 74.6406538931
584 2 5 0.0651340001 54.1800000000 13.0770000000 70.5156538931
585 2 5 0.0643810002 54.1580000000 13.0460000000 68.0766538931
586 2 12 -0.2708210001 52.1310000000 18.0330000000 74.5546538931
587 2 1 0.2576279998 53.2090000000 17.7210000000 75.1296538931
588 2 1 0.2575330002 54.8630000000 16.5100000000 76.0776538931
589 2 12 -0.2708220000 55.5810000000 15.5480000000 76.4556538931
590 2 3 0.0508320000 55.1110000000 17.9160000000 76.3746538931
591 2 3 -0.0462120000 56.1450000000 18.5210000000 77.0806538931
592 2 3 -0.0304090000 56.1510000000 19.9220000000 77.1746538931
593 2 3 0.0828099998 55.1200000000 20.6940000000 76.5846538931
594 2 14 -0.3104160002 55.1570000000 22.0830000000 76.7726538931
595 2 3 0.0828099998 54.3500000000 23.0410000000 76.1466538931
596 2 3 -0.0304090000 53.8660000000 24.1070000000 76.9326538931
597 2 3 -0.0462120000 53.0370000000 25.0930000000 76.3806538931
598 2 3 0.0508320000 52.7380000000 25.0100000000 75.0246538931
599 2 1 0.2575330002 52.0080000000 25.9310000000 74.1656538931
600 2 12 -0.2708220000 51.4290000000 26.9800000000 74.5536538931
601 2 1 0.2576279998 52.8830000000 24.3280000000 72.8516538931
602 2 12 -0.2708210001 53.2460000000 23.6800000000 71.8356538931
603 2 3 0.0532590000 53.2610000000 24.0180000000 74.2296538931
604 2 3 -0.0178270000 54.0740000000 23.0110000000 74.7576538931
605 2 3 -0.0178270000 54.0700000000 20.0450000000 75.8926538931
606 2 3 0.0532590000 54.1080000000 18.6550000000 75.7936538931
607 2 5 0.0632240003 56.9260000000 17.9310000000 77.5386538931
608 2 5 0.0650900002 56.9520000000 20.4090000000 77.7156538931
609 2 5 0.0650900002 54.1330000000 24.1660000000 77.9766538931
610 2 5 0.0632240003 52.6560000000 25.9060000000 76.9876538931
611 2 5 0.0659250001 54.5010000000 22.2520000000 74.1126538931
612 2 5 0.0659250001 53.2480000000 20.5920000000 75.4546538931
613 2 9 -0.2015900002 52.0750000000 25.5110000000 72.8006538931
614 2 3 0.0441750000 52.0850000000 26.4410000000 71.7126538931
615 2 3 -0.0373880000 50.9650000000 26.5640000000 70.8816538931
616 2 3 -0.0293580000 50.9540000000 27.5210000000 69.8606538931
617 2 3 0.0821070002 52.0620000000 28.3530000000 69.6486538931
618 2 14 -0.3104650000 52.0100000000 29.2990000000 68.6126538931
619 2 3 0.0821070002 53.1310000000 29.8970000000 68.0216538931
620 2 3 -0.0293580000 54.2800000000 29.1520000000 67.7176538931
621 2 3 -0.0373880000 55.4270000000 29.7870000000 67.2336538931
622 2 3 0.0441750000 55.4230000000 31.1680000000 66.9966538931
623 2 9 -0.2015900002 56.6360000000 31.8300000000 66.6066538931
624 2 3 -0.0373880000 54.2400000000 31.8960000000 67.2086538931
625 2 3 -0.0293580000 53.1010000000 31.2590000000 67.7146538931
626 2 3 -0.0293580000 53.1730000000 28.2440000000 70.5076538931
627 2 3 -0.0373880000 53.1820000000 27.2900000000 71.5286538931
628 2 5 0.0643810002 50.1020000000 25.9260000000 71.0256538931
629 2 5 0.0651340001 50.0870000000 27.6040000000 69.2156538931
630 2 5 0.0651340001 54.2880000000 28.0850000000 67.8746538931
631 2 5 0.0643810002 56.3190000000 29.2030000000 67.0396538931
632 2 5 0.0643810002 54.2100000000 32.9610000000 67.0326538931
633 2 5 0.0651340001 52.2130000000 31.8380000000 67.9156538931
634 2 5 0.0651340001 54.0260000000 28.9030000000 70.4056538931
635 2 5 0.0643810002 54.0420000000 27.2190000000 72.1836538931
636 2 12 -0.2708210001 58.1800000000 30.8320000000 68.1216538931
637 2 1 0.2576279998 57.9110000000 31.6940000000 67.2416538931
638 2 1 0.2575330002 56.7790000000 32.9810000000 65.7646538931
639 2 12 -0.2708220000 55.8770000000 33.4230000000 65.0056538931
640 2 3 0.0508320000 58.1380000000 33.5160000000 65.8706538931
641 2 3 -0.0462120000 58.7560000000 34.5870000000 65.2266538931
642 2 3 -0.0304090000 60.1060000000 34.8550000000 65.5336538931
643 2 3 0.0828099998 60.8020000000 34.0700000000 66.4806538931
644 2 14 -0.3104160002 62.1480000000 34.3590000000 66.7556538931
645 2 3 0.0828099998 62.7940000000 33.9750000000 67.9366538931
646 2 3 -0.0304090000 62.2210000000 34.2640000000 69.1996538931
647 2 3 -0.0462120000 62.8280000000 33.8090000000 70.3806538931
648 2 3 0.0508320000 64.0040000000 33.0720000000 70.2706538931
649 2 1 0.2575330002 64.7480000000 32.3270000000 71.2756538931
650 2 12 -0.2708220000 64.4880000000 32.3130000000 72.5096538931
651 2 1 0.2576279998 65.7020000000 31.9100000000 69.2766538931
652 2 12 -0.2708210001 66.4300000000 31.4200000000 68.3746538931
653 2 3 0.0532590000 64.5860000000 32.8200000000 69.0486538931
654 2 3 -0.0178270000 64.0130000000 33.2710000000 67.8616538931
655 2 3 -0.0178270000 60.1430000000 32.9880000000 67.1066538931
656 2 3 0.0532590000 58.8200000000 32.7310000000 66.7716538931
657 2 5 0.0632240003 58.2200000000 35.1910000000 64.5026538931
658 2 5 0.0650900002 60.6140000000 35.6760000000 65.0446538931
659 2 5 0.0650900002 61.2920000000 34.8150000000 69.2576538931
660 2 5 0.0632240003 62.3660000000 33.9820000000 71.3436538931
661 2 5 0.0659250001 64.4550000000 33.0300000000 66.9036538931
662 2 5 0.0659250001 60.6510000000 32.3460000000 67.8126538931
663 2 9 -0.2015900002 65.8130000000 31.5850000000 70.6676538931
664 2 3 0.0441750000 66.3930000000 30.3680000000 71.1706538931
665 2 3 -0.0373880000 65.6380000000 29.4880000000 71.9626538931
666 2 3 -0.0293580000 66.1600000000 28.2560000000 72.3556538931
667 2 3 0.0821070002 67.4710000000 27.8930000000 71.9926538931
668 2 14 -0.3104650000 68.0240000000 26.6440000000 72.3226538931
669 2 3 0.0821070002 67.5550000000 25.7680000000 73.3166538931
670 2 3 -0.0293580000 67.0970000000 26.2330000000 74.5596538931
671 2 3 -0.0373880000 66.6180000000 25.3320000000 75.5166538931
672 2 3 0.0441750000 66.6240000000 23.9500000000 75.2596538931
673 2 9 -0.2015900002 66.0890000000 23.0210000000 76.2216538931
674 2 3 -0.0373880000 67.1250000000 23.4890000000 74.0336538931
675 2 3 -0.0293580000 67.5890000000 24.3900000000 73.0706538931
676 2 3 -0.0293580000 68.2340000000 28.7790000000 71.2216538931
677 2 3 -0.0373880000 67.6970000000 30.0040000000 70.8086538931
678 2 5 0.0643810002 64.6270000000 29.7390000000 72.2466538931
679 2 5 0.0651340001 65.5240000000 27.5770000000 72.9076538931
680 2 5 0.0651340001 67.1060000000 27.2930000000 74.7906538931
681 2 5 0.0643810002 66.2330000000 25.7200000000 76.4526538931
682 2 5 0.0643810002 67.1590000000 22.4270000000 73.8166538931
683 2 5 0.0651340001 67.9660000000 24.0210000000 72.1266538931
684 2 5 0.0651340001 69.2390000000 28.5100000000 70.9256538931
685 2 5 0.0643810002 68.2990000000 30.6650000000 70.1996538931
686 2 12 -0.2708210001 64.9670000000 21.4780000000 74.7946538931
687 2 1 0.2576279998 65.2510000000 21.8940000000 75.9476538931
688 2 1 0.2575330002 66.0730000000 23.1390000000 77.6496538931
689 2 12 -0.2708220000 66.7160000000 24.0010000000 78.3026538931
690 2 3 0.0508320000 65.2370000000 22.0930000000 78.2286538931
691 2 3 -0.0462120000 64.9220000000 21.8040000000 79.5546538931
692 2 3 -0.0304090000 64.0540000000 20.7280000000 79.8096538931
693 2 3 0.0828099998 63.4990000000 19.9780000000 78.7446538931
694 2 14 -0.3104160002 62.6530000000 18.9020000000 79.0496538931
695 2 3 0.0828099998 61.6710000000 18.3900000000 78.1906538931
696 2 3 -0.0304090000 60.8190000000 19.2460000000 77.4456538931
697 2 3 -0.0462120000 59.8230000000 18.7140000000 76.6086538931
698 2 3 0.0508320000 59.7210000000 17.3290000000 76.5086538931
699 2 1 0.2575330002 58.8180000000 16.4920000000 75.7296538931
700 2 12 -0.2708220000 57.9430000000 16.9220000000 74.9306538931
701 2 1 0.2576279998 60.1250000000 15.1250000000 76.9706538931
702 2 12 -0.2708210001 60.6700000000 14.0970000000 77.4546538931
703 2 3 0.0532590000 60.5250000000 16.4970000000 77.2526538931
704 2 3 -0.0178270000 61.5050000000 16.9960000000 78.1076538931
705 2 3 -0.0178270000 63.8400000000 20.2980000000 77.4096538931
706 2 3 0.0532590000 64.7270000000 21.3450000000 77.1906538931
707 2 5 0.0632240003 65.3330000000 22.3940000000 80.3636538931
708 2 5 0.0650900002 63.7960000000 20.4810000000 80.8306538931
709 2 5 0.0650900002 60.9200000000 20.3170000000 77.5286538931
710 2 5 0.0632240003 59.1560000000 19.3620000000 76.0586538931
711 2 5 0.0659250001 62.1260000000 16.3260000000 78.6856538931
712 2 5 0.0659250001 63.4420000000 19.7400000000 76.5746538931
713 2 9 -0.2015900002 59.0530000000 15.1060000000 76.0146538931
714 2 3 0.0441750000 58.2230000000 13.9870000000 75.6426538931
715 2 3 -0.0373880000 58.0270000000 12.9150000000 76.5316538931
716 2 3 -0.0293580000 57.2150000000 11.8400000000 76.1756538931
717 2 3 0.0821070002 56.5860000000 11.8050000000 74.9296538931
718 2 14 -0.3104650000 55.7650000000 10.7080000000 74.6306538931
719 2 3 0.0821070002 55.4960000000 10.1920000000 73.3546538931
720 2 3 -0.0293580000 54.3100000000 9.4720000000 73.1676538931
721 2 3 -0.0373880000 54.0010000000 8.9230000000 71.9196538931
722 2 3 0.0441750000 54.8800000000 9.0790000000 70.8376538931
723 2 9 -0.2015900002 54.5570000000 8.5180000000 69.5536538931
724 2 3 -0.0373880000 56.0840000000 9.7770000000 71.0306538931
725 2 3 -0.0293580000 56.3940000000 10.3210000000 72.2816538931
726 2 3 -0.0293580000 56.7510000000 12.8850000000 74.0476538931
727 2 3 -0.0373880000 57.5760000000 13.9600000000 74.3956538931
728 2 5 0.0643810002 58.4750000000 12.9180000000 77.5166538931
729 2 5 0.0651340001 57.0690000000 11.0250000000 76.8726538931
730 2 5 0.0651340001 53.6220000000 9.3440000000 73.9926538931
731 2 5 0.0643810002 53.0610000000 8.4010000000 71.7926538931
732 2 5 0.0643810002 56.8010000000 9.8650000000 70.2266538931
733 2 5 0.0651340001 57.3470000000 10.8120000000 72.4156538931
734 2 5 0.0651340001 56.2300000000 12.9110000000 73.0976538931
735 2 5 0.0643810002 57.7160000000 14.7600000000 73.6826538931
736 2 12 -0.2708210001 55.4760000000 10.1280000000 68.0616538931
737 2 1 0.2576279998 54.8840000000 9.0370000000 68.2606538931
738 2 1 0.2575330002 53.9640000000 7.2420000000 69.2886538931
739 2 12 -0.2708220000 53.6090000000 6.4230000000 70.1766538931
740 2 3 0.0508320000 53.9200000000 7.0010000000 67.8506538931
741 2 3 -0.0462120000 53.5280000000 5.8730000000 67.1316538931
742 2 3 -0.0304090000 53.6990000000 5.8880000000 65.7356538931
743 2 3 0.0828099998 54.2320000000 7.0250000000 65.0846538931
744 2 14 -0.3104160002 54.4180000000 6.9860000000 63.6976538931
745 2 3 0.0828099998 54.2670000000 8.1060000000 62.8766538931
746 2 3 -0.0304090000 53.0090000000 8.7480000000 62.7736538931
747 2 3 -0.0462120000 52.8310000000 9.8410000000 61.9076538931
748 2 3 0.0508320000 53.9310000000 10.2760000000 61.1756538931
749 2 1 0.2575330002 54.0790000000 11.4100000000 60.2766538931
750 2 12 -0.2708220000 53.1380000000 12.1560000000 59.8946538931
751 2 1 0.2576279998 56.1120000000 10.4840000000 60.5356538931
752 2 12 -0.2708210001 57.3520000000 10.2660000000 60.4586538931
753 2 3 0.0532590000 55.1670000000 9.6900000000 61.3106538931
754 2 3 -0.0178270000 55.3660000000 8.5850000000 62.1366538931
755 2 3 -0.0178270000 54.6170000000 8.1550000000 65.8406538931
756 2 3 0.0532590000 54.4650000000 8.1010000000 67.2256538931
757 2 5 0.0632240003 53.1320000000 5.0000000000 67.6306538931
758 2 5 0.0650900002 53.4220000000 5.0200000000 65.1516538931
759 2 5 0.0650900002 52.1710000000 8.3890000000 63.3546538931
760 2 5 0.0632240003 51.8760000000 10.3410000000 61.8306538931
761 2 5 0.0659250001 56.3400000000 8.1250000000 62.2226538931
762 2 5 0.0659250001 55.0720000000 9.0170000000 65.3686538931
763 2 9 -0.2015900002 55.4490000000 11.5810000000 59.8916538931
764 2 3 0.0441750000 56.0200000000 12.8840000000 59.7026538931
765 2 3 -0.0373880000 55.6160000000 13.6770000000 58.6146538931
766 2 3 -0.0293580000 55.9860000000 15.0260000000 58.5516538931
767 2 3 0.0821070002 56.7040000000 15.6040000000 59.6076538931
768 2 14 -0.3104650000 56.8300000000 16.9950000000 59.6906538931
769 2 3 0.0821070002 56.2560000000 17.7350000000 60.7386538931
770 2 3 -0.0293580000 55.2480000000 17.1860000000 61.5506538931
771 2 3 -0.0373880000 54.6920000000 17.9190000000 62.5916538931
772 2 3 0.0441750000 55.1270000000 19.2230000000 62.8466538931
773 2 9 -0.2015900002 54.5570000000 19.9700000000 63.9316538931
774 2 3 -0.0373880000 56.1220000000 19.7900000000 62.0316538931
775 2 3 -0.0293580000 56.6770000000 19.0510000000 60.9776538931
776 2 3 -0.0293580000 57.1980000000 14.7900000000 60.6376538931
777 2 3 -0.0373880000 56.8580000000 13.4370000000 60.6846538931
778 2 5 0.0643810002 54.9710000000 13.2620000000 57.8516538931
779 2 5 0.0651340001 55.6370000000 15.6420000000 57.7336538931
780 2 5 0.0651340001 54.8800000000 16.1900000000 61.3726538931
781 2 5 0.0643810002 53.9260000000 17.4610000000 63.2026538931
782 2 5 0.0643810002 56.4500000000 20.8080000000 62.2046538931
783 2 5 0.0651340001 57.4390000000 19.4950000000 60.3506538931
784 2 5 0.0651340001 57.7740000000 15.2280000000 61.4436538931
785 2 5 0.0643810002 57.1720000000 12.8440000000 61.5346538931
786 2 12 -0.2708210001 52.2530000000 19.3780000000 63.7606538931
787 2 1 0.2576279998 53.1990000000 19.9280000000 64.3856538931
788 2 1 0.2575330002 55.2660000000 20.6000000000 65.0036538931
789 2 12 -0.2708220000 56.5140000000 20.7760000000 65.0266538931
790 2 3 0.0508320000 54.3390000000 20.9600000000 66.0756538931
791 2 3 -0.0462120000 54.5570000000 21.5480000000 67.3186538931
792 2 3 -0.0304090000 53.4400000000 21.7760000000 68.1436538931
793 2 3 0.0828099998 52.1330000000 21.4330000000 67.7066538931
794 2 14 -0.3104160002 51.0080000000 21.7450000000 68.4766538931
795 2 3 0.0828099998 50.9620000000 21.6390000000 69.8706538931
796 2 3 -0.0304090000 51.6230000000 20.5790000000 70.5446538931
797 2 3 -0.0462120000 51.5090000000 20.4400000000 71.9346538931
798 2 3 0.0508320000 50.7420000000 21.3740000000 72.6266538931
799 2 1 0.2575350000 50.4380000000 21.4900000000 74.0456538931
800 2 12 -0.2708220000 50.7180000000 20.6270000000 74.9196538931
801 2 1 0.2576290002 49.4650000000 23.2370000000 72.9926538931
802 2 12 -0.2708210001 48.8690000000 24.3230000000 72.7706538931
803 2 3 0.0532590000 50.1240000000 22.4200000000 71.9816538931
804 2 3 -0.0178270000 50.2050000000 22.5750000000 70.6006538931
805 2 3 -0.0178270000 51.9530000000 20.8140000000 66.4596538931
806 2 3 0.0532590000 53.0780000000 20.5760000000 65.6776538931
807 2 5 0.0632240003 55.5520000000 21.8410000000 67.6356538931
808 2 5 0.0650900002 53.5790000000 22.2530000000 69.1016538931
809 2 5 0.0650900002 52.1910000000 19.8430000000 69.9916538931
810 2 5 0.0632240003 52.0040000000 19.6300000000 72.4506538931
811 2 5 0.0659250001 49.7050000000 23.3960000000 70.1046538931
812 2 5 0.0659250001 50.9650000000 20.5360000000 66.1146538931
813 2 9 -0.2014969998 49.6570000000 22.6650000000 74.2926538931
814 2 3 0.0466670000 49.3830000000 23.2810000000 75.5656538931
815 2 3 -0.0177280000 50.2450000000 23.0750000000 76.6516538931
816 2 3 0.0466670000 50.0020000000 23.6880000000 77.8876538931
817 2 9 -0.2014969998 50.9030000000 23.4810000000 78.9896538931
818 2 3 -0.0272890000 48.9030000000 24.5470000000 78.0266538931
819 2 3 0.0407920000 48.0190000000 24.7630000000 76.9516538931
820 2 1 0.2430250001 46.8760000000 25.7070000000 77.0636538931
821 2 12 -0.2719520000 46.2810000000 26.0800000000 76.0166538931
822 2 10 -0.3110300001 46.4470000000 26.2230000000 78.3336538931
823 2 2 0.0153250000 45.6400000000 27.4360000000 78.4376538931
824 2 2 -0.0121040000 46.4640000000 28.6630000000 78.0306538931
825 2 3 -0.0436850000 45.6370000000 29.9170000000 78.1086538931
826 2 3 -0.0561990001 45.6500000000 30.7070000000 79.2656538931
827 2 3 -0.0291020000 44.8680000000 31.8630000000 79.3406538931
828 2 3 0.1012170000 44.0500000000 32.2340000000 78.2656538931
829 2 13 -0.3582220000 43.2810000000 33.3930000000 78.3676538931
830 2 3 0.1014749999 44.0200000000 31.4390000000 77.1076538931
831 2 13 -0.3582139999 43.2080000000 31.7980000000 76.0346538931
832 2 3 -0.0261000000 44.8100000000 30.2810000000 77.0346538931
833 2 3 -0.0272890000 48.2660000000 24.1130000000 75.7296538931
834 2 5 0.0663080001 51.1420000000 22.4880000000 76.5196538931
835 2 5 0.0651200002 48.7560000000 25.0470000000 78.9726538931
836 2 7 0.1496919999 46.6600000000 25.6970000000 79.2106538931
837 2 4 0.0470310000 44.7380000000 27.3410000000 77.7896538931
838 2 4 0.0470310000 45.2960000000 27.5570000000 79.4886538931
839 2 6 0.0332140000 46.8410000000 28.5420000000 76.9936538931
840 2 6 0.0332140000 47.3570000000 28.7490000000 78.6926538931
841 2 5 0.0626650000 46.2620000000 30.4260000000 80.1146538931
842 2 5 0.0651460002 44.8880000000 32.4670000000 80.2396538931
843 2 8 0.2183780000 42.6640000000 33.6960000000 77.6246538931
844 2 8 0.2183780000 43.1670000000 31.2420000000 75.1886538931
845 2 5 0.0654309999 44.7750000000 29.6640000000 76.1476538931
846 2 5 0.0651200002 47.5800000000 24.2480000000 74.9036538931
847 2 12 -0.2708210001 51.5000000000 21.1870000000 78.7196538931
848 2 1 0.2576290002 51.7270000000 22.3270000000 79.2076538931
849 2 1 0.2575350000 51.5580000000 24.5190000000 79.7286538931
850 2 12 -0.2708220000 51.1990000000 25.7260000000 79.7296538931
851 2 3 0.0508320000 52.7560000000 24.0000000000 80.3756538931
852 2 3 -0.0462120000 53.7820000000 24.6760000000 81.0346538931
853 2 3 -0.0304090000 54.9420000000 23.9540000000 81.3666538931
854 2 3 0.0828099998 55.0600000000 22.5880000000 81.0176538931
855 2 14 -0.3104160002 56.2590000000 21.9120000000 81.2566538931
856 2 3 0.0828099998 57.4270000000 22.1690000000 80.5256538931
857 2 3 -0.0304090000 58.6760000000 21.7990000000 81.0736538931
858 2 3 -0.0462120000 59.8730000000 22.0610000000 80.3796538931
859 2 3 0.0508320000 59.7840000000 22.6570000000 79.1246538931
860 2 1 0.2575330002 60.8190000000 23.0660000000 78.1836538931
861 2 12 -0.2708220000 62.0560000000 23.0330000000 78.4146538931
862 2 1 0.2576279998 58.8180000000 23.5410000000 77.2436538931
863 2 12 -0.2708210001 57.9270000000 23.8480000000 76.4076538931
864 2 3 0.0532590000 58.5690000000 22.9800000000 78.5656538931
865 2 3 -0.0178270000 57.3760000000 22.7750000000 79.2496538931
866 2 3 -0.0178270000 54.0000000000 21.9250000000 80.3716538931
867 2 3 0.0532590000 52.8610000000 22.6640000000 80.0566538931
868 2 5 0.0632240003 53.7110000000 25.7350000000 81.2406538931
869 2 5 0.0650900002 55.7670000000 24.4590000000 81.8526538931
870 2 5 0.0650900002 58.7180000000 21.3230000000 82.0486538931
871 2 5 0.0632240003 60.8340000000 21.8050000000 80.8056538931
872 2 5 0.0659250001 56.4360000000 23.0660000000 78.8026538931
873 2 5 0.0659250001 54.1030000000 20.8940000000 80.0546538931
874 2 9 -0.2015900002 60.2270000000 23.6000000000 76.9906538931
875 2 3 0.0441750000 60.9050000000 24.1680000000 75.8516538931
876 2 3 -0.0373880000 62.1810000000 23.7170000000 75.4826538931
877 2 3 -0.0293580000 62.8750000000 24.3140000000 74.4266538931
878 2 3 0.0821070002 62.2990000000 25.3580000000 73.6966538931
879 2 14 -0.3104650000 63.0430000000 25.9040000000 72.6356538931
880 2 3 0.0821059998 62.7640000000 27.0880000000 71.9366538931
881 2 3 -0.0294010000 63.0490000000 27.1300000000 70.5686538931
882 2 3 -0.0387380000 62.7590000000 28.2700000000 69.8176538931
883 2 3 0.0234370000 62.1930000000 29.3930000000 70.4356538931
884 2 11 -0.3582950001 61.8750000000 30.5500000000 69.6646538931
885 2 3 -0.0387380000 61.9410000000 29.3710000000 71.8146538931
886 2 3 -0.0294010000 62.2450000000 28.2330000000 72.5676538931
887 2 3 -0.0293580000 60.9910000000 25.7690000000 74.0176538931
888 2 3 -0.0373880000 60.3120000000 25.1940000000 75.0946538931
889 2 5 0.0643810002 62.6390000000 22.8880000000 76.0026538931
890 2 5 0.0651340001 63.8600000000 23.9570000000 74.1566538931
891 2 5 0.0651340001 63.4750000000 26.2610000000 70.0836538931
892 2 5 0.0643380001 62.9680000000 28.2760000000 68.7556538931
893 2 7 0.1426590002 61.3860000000 31.3610000000 70.1036538931
894 2 7 0.1426590002 62.1110000000 30.6000000000 68.6476538931
895 2 5 0.0643380001 61.5360000000 30.2450000000 72.3066538931
896 2 5 0.0651340001 62.0900000000 28.2510000000 73.6406538931
897 2 5 0.0651340001 60.4780000000 26.5170000000 73.4296538931
898 2 5 0.0643810002 59.3300000000 25.5750000000 75.3416538931
899 3 11 -0.3582950001 64.8230000000 71.3310000000 30.5536538931
900 3 3 0.0234370000 65.8670000000 70.5140000000 31.0906538931
901 3 3 -0.0387380000 67.1600000000 70.5790000000 30.5586538931
902 3 3 -0.0294010000 68.1840000000 69.7970000000 31.0986538931
903 3 3 0.0821059998 67.9290000000 68.9270000000 32.1646538931
904 3 14 -0.3104650000 68.9920000000 68.1790000000 32.6936538931
905 3 3 0.0821070002 68.8680000000 66.9840000000 33.4176538931
906 3 3 -0.0293580000 67.8770000000 66.0400000000 33.1126538931
907 3 3 -0.0373880000 67.7250000000 64.8980000000 33.8956538931
908 3 3 0.0441750000 68.5680000000 64.6730000000 34.9956538931
909 3 9 -0.2015900002 68.3350000000 63.5570000000 35.8696538931
910 3 3 -0.0373880000 69.6180000000 65.5740000000 35.2466538931
911 3 3 -0.0293580000 69.7660000000 66.7180000000 34.4586538931
912 3 3 -0.0294010000 66.6310000000 68.8710000000 32.7046538931
913 3 3 -0.0387380000 65.6080000000 69.6530000000 32.1636538931
914 3 7 0.1426590002 63.8580000000 71.3070000000 30.9586538931
915 3 7 0.1426590002 65.0060000000 71.9560000000 29.7366538931
916 3 5 0.0643380001 67.3750000000 71.2430000000 29.7326538931
917 3 5 0.0651340001 69.1830000000 69.8720000000 30.6886538931
918 3 5 0.0651340001 67.2160000000 66.1970000000 32.2756538931
919 3 5 0.0643810002 66.9450000000 64.1900000000 33.6436538931
920 3 5 0.0643810002 70.2900000000 65.4210000000 36.0816538931
921 3 5 0.0651340001 70.5540000000 67.4240000000 34.6836538931
922 3 5 0.0651340001 66.4090000000 68.2440000000 33.5576538931
923 3 5 0.0643380001 64.6150000000 69.5970000000 32.5886538931
924 3 12 -0.2708210001 65.9520000000 63.4610000000 35.9036538931
925 3 1 0.2576279998 67.0720000000 62.9730000000 36.2146538931
926 3 1 0.2575330002 69.2990000000 62.7180000000 36.5166538931
927 3 12 -0.2708220000 70.5410000000 62.9130000000 36.4976538931
928 3 3 0.0508320000 68.6340000000 61.6230000000 37.2076538931
929 3 3 -0.0462120000 69.1520000000 60.5380000000 37.9106538931
930 3 3 -0.0304090000 68.2450000000 59.6130000000 38.4606538931
931 3 3 0.0828099998 66.8510000000 59.8030000000 38.3126538931
932 3 14 -0.3104160002 65.9540000000 58.8900000000 38.8706538931
933 3 3 0.0828099998 65.2180000000 59.1400000000 40.0366538931
934 3 3 -0.0304090000 64.0540000000 58.3760000000 40.2736538931
935 3 3 -0.0462120000 63.2810000000 58.5790000000 41.4306538931
936 3 3 0.0508320000 63.7010000000 59.5490000000 42.3356538931
937 3 1 0.2575350000 63.0980000000 60.0050000000 43.5806538931
938 3 12 -0.2708220000 62.0540000000 59.5320000000 44.1026538931
939 3 1 0.2576290002 64.9710000000 61.2290000000 43.2326538931
940 3 12 -0.2708210001 65.8640000000 62.1100000000 43.3416538931
941 3 3 0.0532590000 64.8400000000 60.2930000000 42.1216538931
942 3 3 -0.0178270000 65.6200000000 60.1190000000 40.9786538931
943 3 3 -0.0178270000 66.3600000000 60.9010000000 37.5846538931
944 3 3 0.0532590000 67.2770000000 61.7860000000 37.0326538931
945 3 5 0.0632240003 70.2190000000 60.4080000000 38.0286538931
946 3 5 0.0650900002 68.6220000000 58.7610000000 39.0066538931
947 3 5 0.0650900002 63.7280000000 57.6510000000 39.5446538931
948 3 5 0.0632240003 62.3780000000 58.0050000000 41.6046538931
949 3 5 0.0659250001 66.5080000000 60.7180000000 40.8276538931
950 3 5 0.0659250001 65.3010000000 61.0480000000 37.4386538931
951 3 9 -0.2014969998 63.8880000000 61.0510000000 44.1536538931
952 3 3 0.0466670000 63.5850000000 61.8450000000 45.3126538931
953 3 3 -0.0177280000 62.2660000000 62.2350000000 45.5706538931
954 3 3 0.0466670000 61.9410000000 63.0230000000 46.6896538931
955 3 9 -0.2014969998 60.5910000000 63.5110000000 46.8906538931
956 3 3 -0.0272890000 62.9720000000 63.3750000000 47.5786538931
957 3 3 0.0407920000 64.3080000000 63.0220000000 47.3176538931
958 3 1 0.2430250001 65.4030000000 63.4610000000 48.2106538931
959 3 12 -0.2719520000 66.4420000000 62.7490000000 48.3086538931
960 3 10 -0.3110300001 65.3220000000 64.7010000000 48.9316538931
961 3 2 0.0153250000 66.4610000000 65.2430000000 49.6686538931
962 3 2 -0.0121040000 67.4390000000 65.9110000000 48.7006538931
963 3 3 -0.0436850000 68.6710000000 66.3870000000 49.4196538931
964 3 3 -0.0561990001 68.6960000000 67.6560000000 50.0186538931
965 3 3 -0.0291020000 69.8390000000 68.0930000000 50.6956538931
966 3 3 0.1012170000 70.9650000000 67.2690000000 50.7876538931
967 3 13 -0.3582220000 72.0940000000 67.7390000000 51.4576538931
968 3 3 0.1014749999 70.9420000000 65.9900000000 50.2066538931
969 3 13 -0.3582139999 72.0570000000 65.1560000000 50.3046538931
970 3 3 -0.0261000000 69.7930000000 65.5510000000 49.5286538931
971 3 3 -0.0272890000 64.6050000000 62.2510000000 46.1836538931
972 3 5 0.0663080001 61.5090000000 61.9590000000 44.8586538931
973 3 5 0.0651200002 62.7350000000 63.9060000000 48.4876538931
974 3 7 0.1496919999 64.4840000000 65.3120000000 48.8186538931
975 3 4 0.0470310000 66.9660000000 64.4340000000 50.2366538931
976 3 4 0.0470310000 66.0960000000 65.9930000000 50.4006538931
977 3 6 0.0332140000 67.7260000000 65.1900000000 47.9026538931
978 3 6 0.0332140000 66.9370000000 66.7670000000 48.2006538931
979 3 5 0.0626650000 67.8330000000 68.3090000000 49.9626538931
980 3 5 0.0651460002 69.8510000000 69.0760000000 51.1446538931
981 3 8 0.2183780000 72.9380000000 67.1840000000 51.5436538931
982 3 8 0.2183780000 72.0610000000 64.2290000000 49.8946538931
983 3 5 0.0654309999 69.7790000000 64.5660000000 49.0776538931
984 3 5 0.0651200002 65.6280000000 61.9600000000 45.9776538931
985 3 12 -0.2708210001 59.2390000000 61.9990000000 45.6276538931
986 3 1 0.2576290002 59.4350000000 63.1440000000 46.1166538931
987 3 1 0.2575350000 60.2350000000 64.8070000000 47.4076538931
988 3 12 -0.2708220000 60.9860000000 65.5270000000 48.1156538931
989 3 3 0.0508320000 58.9310000000 65.2200000000 46.9096538931
990 3 3 -0.0462120000 58.2450000000 66.4230000000 47.0606538931
991 3 3 -0.0304090000 57.1020000000 66.6370000000 46.2706538931
992 3 3 0.0828099998 56.7040000000 65.6730000000 45.3116538931
993 3 14 -0.3104160002 55.6810000000 65.9410000000 44.3946538931
994 3 3 0.0828099998 55.8110000000 66.8360000000 43.3176538931
995 3 3 -0.0304090000 56.8140000000 67.8440000000 43.2836538931
996 3 3 -0.0462120000 56.9790000000 68.6590000000 42.1546538931
997 3 3 0.0508320000 56.1290000000 68.4570000000 41.0726538931
998 3 1 0.2575330002 56.1920000000 68.9920000000 39.7226538931
999 3 12 -0.2708220000 57.0030000000 69.8730000000 39.3296538931
1000 3 1 0.2576279998 54.5610000000 67.4360000000 39.7646538931
1001 3 12 -0.2708210001 53.6640000000 66.6280000000 39.4056538931
1002 3 3 0.0532590000 55.1360000000 67.5070000000 41.1026538931
1003 3 3 -0.0178270000 54.9420000000 66.6900000000 42.2166538931
1004 3 3 -0.0178270000 57.3610000000 64.4280000000 45.2546538931
1005 3 3 0.0532590000 58.4690000000 64.2320000000 46.0786538931
1006 3 5 0.0632240003 58.5970000000 67.1790000000 47.7466538931
1007 3 5 0.0650900002 56.5650000000 67.5720000000 46.3536538931
1008 3 5 0.0650900002 57.4790000000 68.0040000000 44.1136538931
1009 3 5 0.0632240003 57.7710000000 69.3950000000 42.1146538931
1010 3 5 0.0659250001 54.1890000000 65.9120000000 42.2016538931
1011 3 5 0.0659250001 57.0630000000 63.6750000000 44.5346538931
1012 3 9 -0.2015900002 55.2250000000 68.3510000000 38.8796538931
1013 3 3 0.0441750000 55.3560000000 68.1390000000 37.4636538931
1014 3 3 -0.0373880000 54.2140000000 67.9560000000 36.6686538931
1015 3 3 -0.0293580000 54.3380000000 67.6310000000 35.3126538931
1016 3 3 0.0821070002 55.6030000000 67.4750000000 34.7356538931
1017 3 14 -0.3104650000 55.6930000000 67.0820000000 33.3906538931
1018 3 3 0.0821070002 56.7190000000 66.2920000000 32.8426538931
1019 3 3 -0.0293580000 57.4200000000 65.3460000000 33.6116538931
1020 3 3 -0.0373880000 58.4480000000 64.5920000000 33.0386538931
1021 3 3 0.0441750000 58.7790000000 64.7500000000 31.6816538931
1022 3 9 -0.2015900002 59.8590000000 63.9970000000 31.0966538931
1023 3 3 -0.0373880000 58.0510000000 65.6670000000 30.9086538931
1024 3 3 -0.0293580000 57.0220000000 66.4210000000 31.4826538931
1025 3 3 -0.0293580000 56.7470000000 67.7310000000 35.5096538931
1026 3 3 -0.0373880000 56.6250000000 68.0390000000 36.8656538931
1027 3 5 0.0643810002 53.2270000000 68.0470000000 37.1066538931
1028 3 5 0.0651340001 53.4510000000 67.4640000000 34.7156538931
1029 3 5 0.0651340001 57.1670000000 65.1850000000 34.6516538931
1030 3 5 0.0643810002 59.0020000000 63.9090000000 33.6676538931
1031 3 5 0.0643810002 58.2680000000 65.7860000000 29.8556538931
1032 3 5 0.0651340001 56.4660000000 67.1170000000 30.8706538931
1033 3 5 0.0651340001 57.7340000000 67.6740000000 35.0686538931
1034 3 5 0.0643810002 57.5250000000 68.1680000000 37.4486538931
1035 3 12 -0.2708210001 59.7310000000 61.9170000000 32.2526538931
1036 3 1 0.2576279998 60.3770000000 62.7360000000 31.5436538931
1037 3 1 0.2575330002 60.8910000000 64.5130000000 30.2496538931
1038 3 12 -0.2708220000 60.8260000000 65.6110000000 29.6346538931
1039 3 3 0.0508320000 62.0210000000 63.5930000000 30.2146538931
1040 3 3 -0.0462120000 63.2450000000 63.6890000000 29.5606538931
1041 3 3 -0.0304090000 64.1750000000 62.6530000000 29.7426538931
1042 3 3 0.0828099998 63.8660000000 61.5320000000 30.5516538931
1043 3 14 -0.3104160002 64.8190000000 60.5080000000 30.6366538931
1044 3 3 0.0828099998 64.7970000000 59.4050000000 31.4996538931
1045 3 3 -0.0304090000 65.1880000000 58.1540000000 30.9786538931
1046 3 3 -0.0462120000 65.1730000000 57.0020000000 31.7766538931
1047 3 3 0.0508320000 64.7990000000 57.1370000000 33.1096538931
1048 3 1 0.2575330002 64.7950000000 56.1580000000 34.1866538931
1049 3 12 -0.2708220000 65.0750000000 54.9370000000 34.0586538931
1050 3 1 0.2576279998 64.3070000000 58.1610000000 35.0886538931
1051 3 12 -0.2708210001 64.0830000000 59.0730000000 35.9266538931
1052 3 3 0.0532590000 64.4850000000 58.3610000000 33.6516538931
1053 3 3 -0.0178270000 64.4710000000 59.5220000000 32.8746538931
1054 3 3 -0.0178270000 62.6020000000 61.4550000000 31.1836538931
1055 3 3 0.0532590000 61.7120000000 62.5120000000 31.0056538931
1056 3 5 0.0632240003 63.4760000000 64.5400000000 28.9366538931
1057 3 5 0.0650900002 65.1350000000 62.7150000000 29.2456538931
1058 3 5 0.0650900002 65.5010000000 58.0790000000 29.9486538931
1059 3 5 0.0632240003 65.4640000000 56.0400000000 31.3726538931
1060 3 5 0.0659250001 64.2490000000 60.4830000000 33.3226538931
1061 3 5 0.0659250001 62.3130000000 60.6050000000 31.7846538931
1062 3 9 -0.2015900002 64.4730000000 56.7790000000 35.4346538931
1063 3 3 0.0441750000 65.0140000000 56.3240000000 36.6786538931
1064 3 3 -0.0373880000 64.1950000000 55.6670000000 37.6036538931
1065 3 3 -0.0293580000 64.7430000000 55.1660000000 38.7896538931
1066 3 3 0.0821070002 66.1060000000 55.3270000000 39.0716538931
1067 3 14 -0.3104650000 66.6150000000 54.8100000000 40.2736538931
1068 3 3 0.0821070002 67.8080000000 55.2260000000 40.8806538931
1069 3 3 -0.0293580000 68.1600000000 56.5820000000 40.9396538931
1070 3 3 -0.0373880000 69.4060000000 56.9680000000 41.4466538931
1071 3 3 0.0441750000 70.2920000000 56.0060000000 41.9486538931
1072 3 9 -0.2015900002 71.6100000000 56.3960000000 42.3636538931
1073 3 3 -0.0373880000 69.8960000000 54.6570000000 41.9776538931
1074 3 3 -0.0293580000 68.6580000000 54.2750000000 41.4486538931
1075 3 3 -0.0293580000 66.9300000000 55.9640000000 38.1226538931
1076 3 3 -0.0373880000 66.3830000000 56.4620000000 36.9376538931
1077 3 5 0.0643810002 63.1380000000 55.5370000000 37.4066538931
1078 3 5 0.0651340001 64.1010000000 54.6640000000 39.5056538931
1079 3 5 0.0651340001 67.4780000000 57.3340000000 40.5766538931
1080 3 5 0.0643810002 69.6780000000 58.0150000000 41.4506538931
1081 3 5 0.0643810002 70.5600000000 53.8970000000 42.3606538931
1082 3 5 0.0651340001 68.3840000000 53.2310000000 41.4356538931
1083 3 5 0.0651340001 67.9960000000 56.0630000000 38.2836538931
1084 3 5 0.0643810002 67.0280000000 56.9470000000 36.2146538931
1085 3 12 -0.2708210001 72.2220000000 57.8330000000 40.5646538931
1086 3 1 0.2576279998 72.5230000000 57.2040000000 41.6146538931
1087 3 1 0.2575330002 72.4140000000 55.8180000000 43.4006538931
1088 3 12 -0.2708220000 71.9720000000 55.0560000000 44.2996538931
1089 3 3 0.0508320000 73.7930000000 56.2980000000 43.2936538931
1090 3 3 -0.0462120000 74.9150000000 56.0500000000 44.0836538931
1091 3 3 -0.0304090000 76.1270000000 56.6780000000 43.7286538931
1092 3 3 0.0828099998 76.2000000000 57.5180000000 42.5946538931
1093 3 14 -0.3104160002 77.4210000000 58.1350000000 42.2756538931
1094 3 3 0.0828099998 77.7370000000 58.6030000000 40.9956538931
1095 3 3 -0.0304090000 77.5860000000 57.7660000000 39.8626538931
1096 3 3 -0.0462120000 77.8260000000 58.2600000000 38.5706538931
1097 3 3 0.0508320000 78.2180000000 59.5900000000 38.4416538931
1098 3 1 0.2575330002 78.3590000000 60.4200000000 37.2546538931
1099 3 12 -0.2708220000 78.2420000000 60.0140000000 36.0656538931
1100 3 1 0.2576279998 78.6610000000 61.7470000000 39.0516538931
1101 3 12 -0.2708210001 78.8230000000 62.7610000000 39.7796538931
1102 3 3 0.0532590000 78.4040000000 60.3980000000 39.5406538931
1103 3 3 -0.0178270000 78.1860000000 59.9300000000 40.8346538931
1104 3 3 -0.0178270000 75.0400000000 57.7510000000 41.8236538931
1105 3 3 0.0532590000 73.8530000000 57.1370000000 42.2056538931
1106 3 5 0.0632240003 74.8570000000 55.4020000000 44.9516538931
1107 3 5 0.0650900002 77.0120000000 56.5100000000 44.3276538931
1108 3 5 0.0650900002 77.2540000000 56.7440000000 39.9866538931
1109 3 5 0.0632240003 77.6600000000 57.6400000000 37.6996538931
1110 3 5 0.0659250001 78.2920000000 60.5860000000 41.6886538931
1111 3 5 0.0659250001 75.0490000000 58.4110000000 40.9666538931
1112 3 9 -0.2015900002 78.6290000000 61.7800000000 37.6196538931
1113 3 3 0.0441750000 78.3020000000 62.9470000000 36.8436538931
1114 3 3 -0.0373880000 77.2130000000 62.9360000000 35.9576538931
1115 3 3 -0.0293580000 76.8250000000 64.0970000000 35.2906538931
1116 3 3 0.0821070002 77.5450000000 65.2930000000 35.4706538931
1117 3 14 -0.3104650000 77.1640000000 66.5000000000 34.8596538931
1118 3 3 0.0821070002 76.3070000000 66.6340000000 33.7546538931
1119 3 3 -0.0293580000 76.3550000000 65.7470000000 32.6656538931
1120 3 3 -0.0373880000 75.4720000000 65.9000000000 31.5926538931
1121 3 3 0.0441750000 74.5510000000 66.9610000000 31.5726538931
1122 3 9 -0.2015900002 73.6080000000 67.0970000000 30.4936538931
1123 3 3 -0.0373880000 74.5390000000 67.8700000000 32.6416538931
1124 3 3 -0.0293580000 75.4110000000 67.7080000000 33.7226538931
1125 3 3 -0.0293580000 78.6460000000 65.3000000000 36.3366538931
1126 3 3 -0.0373880000 79.0170000000 64.1380000000 37.0236538931
1127 3 5 0.0643810002 76.6380000000 62.0340000000 35.8086538931
1128 3 5 0.0651340001 75.9400000000 64.0660000000 34.6686538931
1129 3 5 0.0651340001 77.0750000000 64.9350000000 32.6476538931
1130 3 5 0.0643810002 75.5030000000 65.1790000000 30.7836538931
1131 3 5 0.0643810002 73.8520000000 68.7090000000 32.6426538931
1132 3 5 0.0651340001 75.3850000000 68.4130000000 34.5426538931
1133 3 5 0.0651340001 79.2030000000 66.2140000000 36.4936538931
1134 3 5 0.0643810002 79.8600000000 64.1720000000 37.6996538931
1135 3 12 -0.2708210001 71.6520000000 67.7700000000 31.6756538931
1136 3 1 0.2576279998 72.2190000000 67.4240000000 30.6066538931
1137 3 1 0.2575330002 73.7740000000 66.7160000000 29.1216538931
1138 3 12 -0.2708220000 74.8680000000 66.3790000000 28.6016538931
1139 3 3 0.0508320000 72.5000000000 66.8160000000 28.4176538931
1140 3 3 -0.0462120000 72.1670000000 66.5560000000 27.0896538931
1141 3 3 -0.0304090000 70.8270000000 66.7200000000 26.6986538931
1142 3 3 0.0828099998 69.8430000000 67.1150000000 27.6366538931
1143 3 14 -0.3104160002 68.5230000000 67.2840000000 27.1956538931
1144 3 3 0.0828099998 67.3890000000 67.1850000000 28.0126538931
1145 3 3 -0.0304090000 67.2580000000 66.1510000000 28.9756538931
1146 3 3 -0.0462120000 66.1020000000 66.0520000000 29.7686538931
1147 3 3 0.0508320000 65.1090000000 67.0150000000 29.6036538931
1148 3 1 0.2575330002 63.8260000000 67.1870000000 30.2726538931
1149 3 12 -0.2708220000 63.3950000000 66.4600000000 31.2076538931
1150 3 1 0.2576279998 63.9980000000 68.7940000000 28.6886538931
1151 3 12 -0.2708210001 63.7670000000 69.8030000000 27.9716538931
1152 3 3 0.0532590000 65.2190000000 68.0000000000 28.6496538931
1153 3 3 -0.0178270000 66.3430000000 68.1080000000 27.8336538931
1154 3 3 -0.0178270000 70.2150000000 67.3710000000 28.9776538931
1155 3 3 0.0532590000 71.5540000000 67.2330000000 29.3266538931
1156 3 5 0.0632240003 72.9200000000 66.2340000000 26.3816538931
1157 3 5 0.0650900002 70.5430000000 66.5280000000 25.6726538931
1158 3 5 0.0650900002 68.0430000000 65.4200000000 29.0956538931
1159 3 5 0.0632240003 65.9870000000 65.2520000000 30.4866538931
1160 3 5 0.0659250001 66.4100000000 68.8880000000 27.0886538931
1161 3 5 0.0659250001 69.4910000000 67.6830000000 29.7166538931
1162 3 9 -0.2015900002 63.1130000000 68.2950000000 29.7046538931
1163 3 3 0.0441750000 61.7290000000 68.6410000000 29.9146538931
1164 3 3 -0.0373880000 60.9410000000 69.1170000000 28.8526538931
1165 3 3 -0.0293580000 59.6000000000 69.4390000000 29.0536538931
1166 3 3 0.0821070002 59.0170000000 69.3000000000 30.3146538931
1167 3 14 -0.3104650000 57.6590000000 69.6210000000 30.4576538931
1168 3 3 0.0821070002 57.0290000000 70.0740000000 31.6256538931
1169 3 3 -0.0293580000 55.6520000000 69.8600000000 31.7606538931
1170 3 3 -0.0373880000 54.9710000000 70.3050000000 32.8976538931
1171 3 3 0.0441750000 55.6580000000 70.9830000000 33.9166538931
1172 3 9 -0.2015900002 54.9560000000 71.4350000000 35.0876538931
1173 3 3 -0.0373880000 57.0340000000 71.2250000000 33.7696538931
1174 3 3 -0.0293580000 57.7120000000 70.7830000000 32.6276538931
1175 3 3 -0.0293580000 59.7880000000 68.7960000000 31.3746538931
1176 3 3 -0.0373880000 61.1370000000 68.4850000000 31.1796538931
1177 3 5 0.0643810002 61.3490000000 69.2130000000 27.8536538931
1178 3 5 0.0651340001 59.0050000000 69.7980000000 28.2246538931
1179 3 5 0.0651340001 55.1090000000 69.3380000000 30.9846538931
1180 3 5 0.0643810002 53.9140000000 70.0940000000 32.9946538931
1181 3 5 0.0643810002 57.5740000000 71.7910000000 34.5156538931
1182 3 5 0.0651340001 58.7600000000 71.0220000000 32.5176538931
1183 3 5 0.0651340001 59.3470000000 68.6250000000 32.3506538931
1184 3 5 0.0643810002 61.7180000000 68.1350000000 32.0226538931
1185 3 12 -0.2708210001 56.5990000000 71.1610000000 36.7876538931
1186 3 1 0.2576279998 55.4520000000 71.5290000000 36.4266538931
1187 3 1 0.2575330002 53.6550000000 72.0290000000 35.1436538931
1188 3 12 -0.2708220000 52.9140000000 72.2170000000 34.1436538931
1189 3 3 0.0508320000 53.3630000000 72.4620000000 36.5066538931
1190 3 3 -0.0462120000 52.2780000000 73.1700000000 37.0196538931
1191 3 3 -0.0304090000 52.3180000000 73.5490000000 38.3726538931
1192 3 3 0.0828099998 53.4180000000 73.1990000000 39.1896538931
1193 3 14 -0.3104160002 53.4340000000 73.6250000000 40.5226538931
1194 3 3 0.0828099998 53.9980000000 72.8730000000 41.5566538931
1195 3 3 -0.0304090000 53.4670000000 71.6020000000 41.8816538931
1196 3 3 -0.0462120000 53.9890000000 70.8610000000 42.9566538931
1197 3 3 0.0508320000 55.0500000000 71.4110000000 43.6706538931
1198 3 1 0.2575330002 55.8420000000 70.8600000000 44.7586538931
1199 3 12 -0.2708220000 55.5980000000 69.7760000000 45.3526538931
1200 3 1 0.2576279998 56.7800000000 72.8150000000 44.1646538931
1201 3 12 -0.2708210001 57.5630000000 73.8020000000 44.0976538931
1202 3 3 0.0532590000 55.6030000000 72.6210000000 43.3256538931
1203 3 3 -0.0178270000 55.0860000000 73.3920000000 42.2866538931
1204 3 3 -0.0178270000 54.5010000000 72.4780000000 38.6406538931
1205 3 3 0.0532590000 54.4500000000 72.1420000000 37.2886538931
1206 3 5 0.0632240003 51.4410000000 73.4480000000 36.3926538931
1207 3 5 0.0650900002 51.4980000000 74.1170000000 38.7956538931
1208 3 5 0.0650900002 52.6430000000 71.1990000000 41.3106538931
1209 3 5 0.0632240003 53.5950000000 69.8860000000 43.2056538931
1210 3 5 0.0659250001 55.5210000000 74.3480000000 42.0356538931
1211 3 5 0.0659250001 55.3760000000 72.2420000000 39.2346538931
1212 3 9 -0.2015900002 56.9560000000 71.7090000000 45.0606538931
1213 3 3 0.0441750000 58.2270000000 71.1720000000 45.4546538931
1214 3 3 -0.0373880000 58.3680000000 70.5460000000 46.7046538931
1215 3 3 -0.0293580000 59.5260000000 69.8170000000 47.0016538931
1216 3 3 0.0821070002 60.5190000000 69.6570000000 46.0256538931
1217 3 14 -0.3104650000 61.5330000000 68.7090000000 46.2066538931
1218 3 3 0.0821070002 61.6610000000 67.5850000000 45.3716538931
1219 3 3 -0.0293580000 60.6000000000 67.1630000000 44.5516538931
1220 3 3 -0.0373880000 60.7380000000 66.0570000000 43.7206538931
1221 3 3 0.0441750000 61.9380000000 65.3410000000 43.6916538931
1222 3 9 -0.2015900002 62.0760000000 64.2080000000 42.8226538931
1223 3 3 -0.0373880000 63.0000000000 65.7430000000 44.5206538931
1224 3 3 -0.0293580000 62.8580000000 66.8540000000 45.3626538931
1225 3 3 -0.0293580000 60.4290000000 70.3680000000 44.8196538931
1226 3 3 -0.0373880000 59.2880000000 71.1230000000 44.5366538931
1227 3 5 0.0643810002 57.5560000000 70.5770000000 47.4216538931
1228 3 5 0.0651340001 59.6100000000 69.3030000000 47.9496538931
1229 3 5 0.0651340001 59.6580000000 67.6830000000 44.5596538931
1230 3 5 0.0643810002 59.9040000000 65.7680000000 43.0946538931
1231 3 5 0.0643810002 63.9270000000 65.1820000000 44.5246538931
1232 3 5 0.0651340001 63.6780000000 67.1550000000 46.0016538931
1233 3 5 0.0651340001 61.2060000000 70.2670000000 44.0716538931
1234 3 5 0.0643810002 59.1950000000 71.5910000000 43.5646538931
1235 3 12 -0.2708210001 59.9450000000 63.1640000000 43.0566538931
1236 3 1 0.2576279998 61.0600000000 63.2590000000 42.4786538931
1237 3 1 0.2575330002 63.0980000000 64.0000000000 41.8426538931
1238 3 12 -0.2708220000 64.1530000000 64.6860000000 41.7546538931
1239 3 3 0.0508320000 62.7130000000 62.9170000000 40.9386538931
1240 3 3 -0.0462120000 63.3500000000 62.3850000000 39.8206538931
1241 3 3 -0.0304090000 62.7190000000 61.3230000000 39.1476538931
1242 3 3 0.0828099998 61.4820000000 60.8030000000 39.6106538931
1243 3 14 -0.3104160002 60.8950000000 59.6850000000 39.0076538931
1244 3 3 0.0828099998 60.8890000000 59.4550000000 37.6296538931
1245 3 3 -0.0304090000 60.7380000000 60.5260000000 36.7106538931
1246 3 3 -0.0462120000 60.6590000000 60.2760000000 35.3326538931
1247 3 3 0.0508320000 60.7440000000 58.9560000000 34.8996538931
1248 3 1 0.2575350000 60.6920000000 58.3900000000 33.5596538931
1249 3 12 -0.2708220000 60.3980000000 59.0280000000 32.5146538931
1250 3 1 0.2576290002 61.0340000000 56.6880000000 35.0086538931
1251 3 12 -0.2708210001 61.2830000000 55.5500000000 35.4846538931
1252 3 3 0.0532590000 60.9210000000 57.9160000000 35.7846538931
1253 3 3 -0.0178270000 60.9860000000 58.1320000000 37.1586538931
1254 3 3 -0.0178270000 60.8520000000 61.3830000000 40.7236538931
1255 3 3 0.0532590000 61.4860000000 62.4500000000 41.3516538931
1256 3 5 0.0632240003 64.3130000000 62.7600000000 39.4896538931
1257 3 5 0.0650900002 63.2040000000 60.8750000000 38.2926538931
1258 3 5 0.0650900002 60.6430000000 61.5450000000 37.0626538931
1259 3 5 0.0632240003 60.5350000000 61.0890000000 34.6316538931
1260 3 5 0.0659250001 61.1150000000 57.3040000000 37.8436538931
1261 3 5 0.0659250001 59.9030000000 61.0080000000 41.0836538931
1262 3 9 -0.2014969998 60.8940000000 56.9720000000 33.6106538931
1263 3 3 0.0466670000 61.1820000000 56.0910000000 32.5086538931
1264 3 3 -0.0177280000 61.7710000000 56.5890000000 31.3376538931
1265 3 3 0.0466670000 62.0780000000 55.7380000000 30.2696538931
1266 3 9 -0.2014969998 62.6970000000 56.2590000000 29.0796538931
1267 3 3 -0.0272890000 61.8250000000 54.3640000000 30.3886538931
1268 3 3 0.0407920000 61.2280000000 53.8410000000 31.5506538931
1269 3 1 0.2430250001 60.9970000000 52.3820000000 31.7166538931
1270 3 12 -0.2719520000 60.7200000000 51.9280000000 32.8606538931
1271 3 10 -0.3110300001 61.1020000000 51.4720000000 30.6106538931
1272 3 2 0.0153250000 61.2990000000 50.0390000000 30.8106538931
1273 3 2 -0.0121040000 62.6950000000 49.7650000000 31.3826538931
1274 3 3 -0.0436850000 62.9020000000 48.2940000000 31.6166538931
1275 3 3 -0.0561990001 63.5120000000 47.4970000000 30.6396538931
1276 3 3 -0.0291020000 63.6880000000 46.1270000000 30.8546538931
1277 3 3 0.1012170000 63.2420000000 45.5340000000 32.0426538931
1278 3 13 -0.3582220000 63.4320000000 44.1660000000 32.2306538931
1279 3 3 0.1014749999 62.6150000000 46.3250000000 33.0216538931
1280 3 13 -0.3582139999 62.1660000000 45.7440000000 34.2046538931
1281 3 3 -0.0261000000 62.4450000000 47.7010000000 32.8036538931
1282 3 3 -0.0272890000 60.9000000000 54.7200000000 32.5996538931
1283 3 5 0.0663080001 62.0510000000 57.6310000000 31.2806538931
1284 3 5 0.0651200002 62.1100000000 53.7150000000 29.5726538931
1285 3 7 0.1496919999 60.9790000000 51.8200000000 29.6336538931
1286 3 4 0.0470310000 60.5140000000 49.6460000000 31.4966538931
1287 3 4 0.0470310000 61.1950000000 49.5160000000 29.8336538931
1288 3 6 0.0332140000 62.8250000000 50.3070000000 32.3426538931
1289 3 6 0.0332140000 63.4680000000 50.1560000000 30.6816538931
1290 3 5 0.0626650000 63.8470000000 47.9340000000 29.7066538931
1291 3 5 0.0651460002 64.1640000000 45.5210000000 30.0926538931
1292 3 8 0.2183780000 63.1150000000 43.6880000000 33.0656538931
1293 3 8 0.2183780000 61.7100000000 46.2910000000 34.9266538931
1294 3 5 0.0654309999 61.9500000000 48.3040000000 33.5526538931
1295 3 5 0.0651200002 60.4160000000 54.3360000000 33.4876538931
1296 3 12 -0.2708210001 61.6200000000 58.3770000000 28.8486538931
1297 3 1 0.2576290002 62.5740000000 57.5970000000 28.5756538931
1298 3 1 0.2575350000 63.9220000000 55.7860000000 28.5096538931
1299 3 12 -0.2708220000 64.4440000000 54.6710000000 28.7726538931
1300 3 3 0.0508320000 64.5270000000 56.8200000000 27.6796538931
1301 3 3 -0.0462120000 65.7880000000 56.8690000000 27.0866538931
1302 3 3 -0.0304090000 66.2090000000 58.0890000000 26.5296538931
1303 3 3 0.0828099998 65.3760000000 59.2310000000 26.5946538931
1304 3 14 -0.3104160002 65.8510000000 60.4620000000 26.1326538931
1305 3 3 0.0828099998 66.8450000000 61.1850000000 26.8056538931
1306 3 3 -0.0304090000 67.5790000000 62.1650000000 26.0986538931
1307 3 3 -0.0462120000 68.6010000000 62.8950000000 26.7336538931
1308 3 3 0.0508320000 68.8370000000 62.6530000000 28.0836538931
1309 3 1 0.2575330002 69.8160000000 63.2210000000 29.0016538931
1310 3 12 -0.2708220000 70.7400000000 64.0090000000 28.6716538931
1311 3 1 0.2576279998 68.5590000000 61.7500000000 30.1716538931
1312 3 12 -0.2708210001 68.0330000000 61.1090000000 31.1196538931
1313 3 3 0.0532590000 68.0970000000 61.7320000000 28.7896538931
1314 3 3 -0.0178270000 67.1140000000 60.9640000000 28.1746538931
1315 3 3 -0.0178270000 64.0990000000 59.1480000000 27.1796538931
1316 3 3 0.0532590000 63.7060000000 57.9250000000 27.7226538931
1317 3 5 0.0632240003 66.4440000000 56.0100000000 27.0976538931
1318 3 5 0.0650900002 67.1940000000 58.1650000000 26.0876538931
1319 3 5 0.0650900002 67.3670000000 62.3450000000 25.0486538931
1320 3 5 0.0632240003 69.1850000000 63.6270000000 26.1906538931
1321 3 5 0.0659250001 66.5670000000 60.2250000000 28.7436538931
1322 3 5 0.0659250001 63.4780000000 60.0300000000 27.2796538931
1323 3 9 -0.2015900002 69.6380000000 62.6800000000 30.3186538931
1324 3 3 0.0441750000 70.4400000000 62.9370000000 31.4906538931
1325 3 3 -0.0373880000 71.0770000000 64.1750000000 31.6606538931
1326 3 3 -0.0293580000 71.9160000000 64.4050000000 32.7556538931
1327 3 3 0.0821070002 72.1160000000 63.4120000000 33.7186538931
1328 3 14 -0.3104650000 72.9580000000 63.7130000000 34.8036538931
1329 3 3 0.0821059998 73.4770000000 62.8060000000 35.7406538931
1330 3 3 -0.0294010000 73.6220000000 63.2350000000 37.0636538931
1331 3 3 -0.0387380000 74.1000000000 62.3630000000 38.0436538931
1332 3 3 0.0234370000 74.4550000000 61.0520000000 37.7036538931
1333 3 11 -0.3582950001 74.9210000000 60.1530000000 38.7096538931
1334 3 3 -0.0387380000 74.3490000000 60.6280000000 36.3716538931
1335 3 3 -0.0294010000 73.8830000000 61.5070000000 35.3886538931
1336 3 3 -0.0293580000 71.4260000000 62.1920000000 33.5896538931
1337 3 3 -0.0373880000 70.6150000000 61.9510000000 32.4766538931
1338 3 5 0.0643810002 70.9130000000 64.9770000000 30.9546538931
1339 3 5 0.0651340001 72.4020000000 65.3650000000 32.8716538931
1340 3 5 0.0651340001 73.3380000000 64.2440000000 37.3336538931
1341 3 5 0.0643380001 74.1850000000 62.7070000000 39.0656538931
1342 3 7 0.1426590002 75.1170000000 59.1550000000 38.4776538931
1343 3 7 0.1426590002 75.0590000000 60.4740000000 39.6946538931
1344 3 5 0.0643380001 74.6520000000 59.6280000000 36.0936538931
1345 3 5 0.0651340001 73.8540000000 61.1780000000 34.3556538931
1346 3 5 0.0651340001 71.4900000000 61.4280000000 34.3506538931
1347 3 5 0.0643810002 70.1440000000 60.9820000000 32.3886538931
1348 4 11 -0.3582950001 55.7880000000 44.6050000000 44.7436538931
1349 4 3 0.0234370000 54.4330000000 44.9150000000 45.0806538931
1350 4 3 -0.0387380000 53.3900000000 44.0860000000 44.6506538931
1351 4 3 -0.0294010000 52.0690000000 44.3780000000 44.9996538931
1352 4 3 0.0821059998 51.7680000000 45.5100000000 45.7656538931
1353 4 14 -0.3104650000 50.4310000000 45.7500000000 46.1156538931
1354 4 3 0.0821070002 49.8920000000 46.9970000000 46.4686538931
1355 4 3 -0.0293580000 50.3290000000 48.1840000000 45.8646538931
1356 4 3 -0.0373880000 49.8350000000 49.4150000000 46.2886538931
1357 4 3 0.0441750000 48.8850000000 49.4830000000 47.3216538931
1358 4 9 -0.2015900002 48.4650000000 50.7560000000 47.8356538931
1359 4 3 -0.0373880000 48.3820000000 48.2880000000 47.8646538931
1360 4 3 -0.0293580000 48.8810000000 47.0550000000 47.4356538931
1361 4 3 -0.0294010000 52.8190000000 46.3360000000 46.2046538931
1362 4 3 -0.0387380000 54.1390000000 46.0430000000 45.8556538931
1363 4 7 0.1426590002 56.5770000000 45.2050000000 45.0786538931
1364 4 7 0.1426590002 56.0100000000 43.7780000000 44.1446538931
1365 4 5 0.0643380001 53.6040000000 43.2090000000 44.0546538931
1366 4 5 0.0651340001 51.2750000000 43.7170000000 44.6746538931
1367 4 5 0.0651340001 51.0610000000 48.1550000000 45.0736538931
1368 4 5 0.0643810002 50.1970000000 50.3180000000 45.8116538931
1369 4 5 0.0643810002 47.6420000000 48.3080000000 48.6546538931
1370 4 5 0.0651340001 48.5130000000 46.1440000000 47.8866538931
1371 4 5 0.0651340001 52.6270000000 47.1920000000 46.8376538931
1372 4 5 0.0643380001 54.9350000000 46.6890000000 46.1996538931
1373 4 12 -0.2708210001 50.4910000000 52.0120000000 47.7266538931
1374 4 1 0.2576279998 49.2510000000 51.9520000000 47.9426538931
1375 4 1 0.2575330002 47.1590000000 51.1540000000 48.2686538931
1376 4 12 -0.2708220000 46.1740000000 50.3780000000 48.3646538931
1377 4 3 0.0508320000 47.1430000000 52.5730000000 48.5926538931
1378 4 3 -0.0462120000 46.1000000000 53.4070000000 48.9886538931
1379 4 3 -0.0304090000 46.3900000000 54.7660000000 49.2136538931
1380 4 3 0.0828099998 47.7100000000 55.2510000000 49.0576538931
1381 4 14 -0.3104160002 47.9960000000 56.5970000000 49.2936538931
1382 4 3 0.0828099998 48.6450000000 57.0610000000 50.4456538931
1383 4 3 -0.0304090000 49.2660000000 58.3280000000 50.4036538931
1384 4 3 -0.0462120000 49.9250000000 58.8470000000 51.5326538931
1385 4 3 0.0508320000 49.9400000000 58.0770000000 52.6916538931
1386 4 1 0.2575350000 50.5640000000 58.3260000000 53.9836538931
1387 4 12 -0.2708220000 51.1940000000 59.3690000000 54.3016538931
1388 4 1 0.2576290002 49.5580000000 56.3010000000 54.0826538931
1389 4 12 -0.2708210001 49.1940000000 55.1610000000 54.4766538931
1390 4 3 0.0532590000 49.3280000000 56.8460000000 52.7496538931
1391 4 3 -0.0178270000 48.6750000000 56.3030000000 51.6416538931
1392 4 3 -0.0178270000 48.7380000000 54.3860000000 48.6426538931
1393 4 3 0.0532590000 48.4200000000 53.0550000000 48.4046538931
1394 4 5 0.0632240003 45.0970000000 53.0240000000 49.1156538931
1395 4 5 0.0650900002 45.5980000000 55.4340000000 49.5156538931
1396 4 5 0.0650900002 49.2710000000 58.8950000000 49.4856538931
1397 4 5 0.0632240003 50.4180000000 59.8110000000 51.4946538931
1398 4 5 0.0659250001 48.2070000000 55.3310000000 51.7076538931
1399 4 5 0.0659250001 49.7450000000 54.7440000000 48.4916538931
1400 4 9 -0.2014969998 50.3250000000 57.2240000000 54.8636538931
1401 4 3 0.0466670000 50.8600000000 57.0220000000 56.1826538931
1402 4 3 -0.0177280000 52.1720000000 57.4140000000 56.4756538931
1403 4 3 0.0466670000 52.7260000000 57.2170000000 57.7536538931
1404 4 9 -0.2014969998 54.1170000000 57.5260000000 58.0176538931
1405 4 3 -0.0272890000 51.9120000000 56.6570000000 58.7536538931
1406 4 3 0.0407920000 50.6040000000 56.2260000000 58.4686538931
1407 4 1 0.2430250001 49.7750000000 55.5640000000 59.5006538931
1408 4 12 -0.2719520000 48.5180000000 55.6720000000 59.4456538931
1409 4 10 -0.3110300001 50.3740000000 54.7670000000 60.5356538931
1410 4 2 0.0153250000 49.5730000000 53.9550000000 61.4486538931
1411 4 2 -0.0121040000 49.1370000000 52.6640000000 60.7536538931
1412 4 3 -0.0436850000 48.2250000000 51.8580000000 61.6366538931
1413 4 3 -0.0561990001 48.7570000000 50.9520000000 62.5666538931
1414 4 3 -0.0291020000 47.9070000000 50.2100000000 63.3926538931
1415 4 3 0.1012170000 46.5210000000 50.3670000000 63.3056538931
1416 4 13 -0.3582220000 45.6990000000 49.6030000000 64.1336538931
1417 4 3 0.1014749999 45.9800000000 51.2850000000 62.3896538931
1418 4 13 -0.3582139999 44.5970000000 51.4570000000 62.3046538931
1419 4 3 -0.0261000000 46.8340000000 52.0310000000 61.5616538931
1420 4 3 -0.0272890000 50.0830000000 56.4190000000 57.1796538931
1421 4 5 0.0663080001 52.7660000000 57.8230000000 55.6796538931
1422 4 5 0.0651200002 52.2870000000 56.5750000000 59.7626538931
1423 4 7 0.1496919999 51.4090000000 54.6390000000 60.5576538931
1424 4 4 0.0470310000 48.6880000000 54.5310000000 61.7916538931
1425 4 4 0.0470310000 50.1810000000 53.7070000000 62.3426538931
1426 4 6 0.0332140000 48.6160000000 52.9090000000 59.8016538931
1427 4 6 0.0332140000 50.0360000000 52.0660000000 60.4896538931
1428 4 5 0.0626650000 49.8280000000 50.8170000000 62.6536538931
1429 4 5 0.0651460002 48.3270000000 49.5070000000 64.0996538931
1430 4 8 0.2183780000 44.6880000000 49.6730000000 64.1016538931
1431 4 8 0.2183780000 44.1860000000 52.1150000000 61.6516538931
1432 4 5 0.0654309999 46.4150000000 52.7350000000 60.8526538931
1433 4 5 0.0651200002 49.0720000000 56.1050000000 56.9506538931
1434 4 12 -0.2708210001 54.6870000000 59.1060000000 56.3186538931
1435 4 1 0.2576290002 55.0220000000 58.1900000000 57.1176538931
1436 4 1 0.2575350000 55.0020000000 56.7630000000 58.8586538931
1437 4 12 -0.2708220000 54.6270000000 55.9860000000 59.7756538931
1438 4 3 0.0508320000 56.3850000000 56.9250000000 58.4336538931
1439 4 3 -0.0462120000 57.5470000000 56.3030000000 58.8816538931
1440 4 3 -0.0304090000 58.7230000000 56.4740000000 58.1286538931
1441 4 3 0.0828099998 58.6970000000 57.2140000000 56.9206538931
1442 4 14 -0.3104160002 59.8050000000 57.2480000000 56.0676538931
1443 4 3 0.0828099998 60.2290000000 56.1540000000 55.2916538931
1444 4 3 -0.0304090000 59.8440000000 54.8170000000 55.5886538931
1445 4 3 -0.0462120000 60.2040000000 53.7580000000 54.7416538931
1446 4 3 0.0508320000 60.9510000000 54.0530000000 53.6066538931
1447 4 1 0.2575330002 61.2850000000 53.2180000000 52.4646538931
1448 4 12 -0.2708220000 61.0420000000 51.9850000000 52.3746538931
1449 4 1 0.2576279998 61.9510000000 55.3190000000 51.9916538931
1450 4 12 -0.2708210001 62.3760000000 56.3340000000 51.3776538931
1451 4 3 0.0532590000 61.3550000000 55.3360000000 53.3226538931
1452 4 3 -0.0178270000 61.0210000000 56.4070000000 54.1526538931
1453 4 3 -0.0178270000 57.5300000000 57.9100000000 56.5496538931
1454 4 3 0.0532590000 56.3910000000 57.7500000000 57.3376538931
1455 4 5 0.0632240003 57.5390000000 55.6870000000 59.7686538931
1456 4 5 0.0650900002 59.6330000000 55.9830000000 58.4436538931
1457 4 5 0.0650900002 59.2630000000 54.5800000000 56.4606538931
1458 4 5 0.0632240003 59.8730000000 52.7490000000 54.9476538931
1459 4 5 0.0659250001 61.3030000000 57.4170000000 53.8846538931
1460 4 5 0.0659250001 57.4960000000 58.4890000000 55.6346538931
1461 4 9 -0.2015900002 61.9000000000 53.9990000000 51.4316538931
1462 4 3 0.0441750000 61.8210000000 53.7330000000 50.0206538931
1463 4 3 -0.0373880000 62.8040000000 54.2320000000 49.1516538931
1464 4 3 -0.0293580000 62.6700000000 54.0790000000 47.7666538931
1465 4 3 0.0821070002 61.5490000000 53.4350000000 47.2306538931
1466 4 14 -0.3104650000 61.4120000000 53.3590000000 45.8346538931
1467 4 3 0.0821070002 60.1910000000 53.3660000000 45.1386538931
1468 4 3 -0.0293580000 59.0500000000 54.0130000000 45.6446538931
1469 4 3 -0.0373880000 57.8470000000 53.9830000000 44.9336538931
1470 4 3 0.0441750000 57.7670000000 53.3280000000 43.6926538931
1471 4 9 -0.2015900002 56.5190000000 53.2680000000 42.9736538931
1472 4 3 -0.0373880000 58.9170000000 52.7170000000 43.1726538931
1473 4 3 -0.0293580000 60.1220000000 52.7470000000 43.8846538931
1474 4 3 -0.0293580000 60.6020000000 52.8690000000 48.0986538931
1475 4 3 -0.0373880000 60.7260000000 53.0350000000 49.4796538931
1476 4 5 0.0643810002 63.6640000000 54.7570000000 49.5496538931
1477 4 5 0.0651340001 63.4200000000 54.4930000000 47.1046538931
1478 4 5 0.0651340001 59.0920000000 54.5480000000 46.5846538931
1479 4 5 0.0643810002 56.9750000000 54.4470000000 45.3736538931
1480 4 5 0.0643810002 58.8870000000 52.2310000000 42.2076538931
1481 4 5 0.0651340001 61.0000000000 52.2790000000 43.4656538931
1482 4 5 0.0651340001 59.7590000000 52.3160000000 47.7086538931
1483 4 5 0.0643810002 59.9480000000 52.6430000000 50.1186538931
1484 4 12 -0.2708210001 55.5160000000 55.3650000000 43.4946538931
1485 4 1 0.2576279998 55.4170000000 54.1810000000 43.0746538931
1486 4 1 0.2575330002 55.9520000000 52.1080000000 42.3556538931
1487 4 12 -0.2708220000 56.5980000000 51.0650000000 42.0696538931
1488 4 3 0.0508320000 54.5280000000 52.3090000000 42.1196538931
1489 4 3 -0.0462120000 53.5720000000 51.4560000000 41.5786538931
1490 4 3 -0.0304090000 52.2450000000 51.9090000000 41.5076538931
1491 4 3 0.0828099998 51.8950000000 53.2070000000 41.9546538931
1492 4 14 -0.3104160002 50.5630000000 53.6140000000 41.7956538931
1493 4 3 0.0828099998 49.9670000000 54.7700000000 42.3136538931
1494 4 3 -0.0304090000 49.0730000000 55.4780000000 41.4826538931
1495 4 3 -0.0462120000 48.4530000000 56.6540000000 41.9256538931
1496 4 3 0.0508320000 48.7150000000 57.0810000000 43.2226538931
1497 4 1 0.2575330002 48.1420000000 58.1830000000 43.9826538931
1498 4 12 -0.2708220000 47.3210000000 59.0250000000 43.5316538931
1499 4 1 0.2576279998 49.4450000000 57.0000000000 45.3836538931
1500 4 12 -0.2708210001 49.9990000000 56.5760000000 46.4316538931
1501 4 3 0.0532590000 49.5260000000 56.3640000000 44.0696538931
1502 4 3 -0.0178270000 50.1730000000 55.1990000000 43.6486538931
1503 4 3 -0.0178270000 52.8960000000 54.0590000000 42.4786538931
1504 4 3 0.0532590000 54.1990000000 53.5690000000 42.5606538931
1505 4 5 0.0632240003 53.8410000000 50.4700000000 41.2286538931
1506 4 5 0.0650900002 51.4880000000 51.2550000000 41.0946538931
1507 4 5 0.0650900002 48.8640000000 55.1120000000 40.4896538931
1508 4 5 0.0632240003 47.7750000000 57.2030000000 41.2826538931
1509 4 5 0.0659250001 50.7870000000 54.6290000000 44.3366538931
1510 4 5 0.0659250001 52.6800000000 55.0660000000 42.8026538931
1511 4 9 -0.2015900002 48.6010000000 58.1580000000 45.3366538931
1512 4 3 0.0441750000 47.7900000000 58.6020000000 46.4286538931
1513 4 3 -0.0373880000 48.0960000000 59.7960000000 47.0916538931
1514 4 3 -0.0293580000 47.2620000000 60.2600000000 48.1156538931
1515 4 3 0.0821070002 46.1260000000 59.5340000000 48.4966538931
1516 4 14 -0.3104650000 45.3170000000 60.0350000000 49.5296538931
1517 4 3 0.0821070002 44.4200000000 59.2670000000 50.2846538931
1518 4 3 -0.0293580000 44.7620000000 57.9840000000 50.7386538931
1519 4 3 -0.0373880000 43.8150000000 57.1900000000 51.3916538931
1520 4 3 0.0441750000 42.5300000000 57.6880000000 51.6476538931
1521 4 9 -0.2015900002 41.5310000000 56.8300000000 52.2176538931
1522 4 3 -0.0373880000 42.2220000000 59.0100000000 51.2786538931
1523 4 3 -0.0293580000 43.1660000000 59.7920000000 50.6056538931
1524 4 3 -0.0293580000 45.8080000000 58.3490000000 47.8046538931
1525 4 3 -0.0373880000 46.6390000000 57.8870000000 46.7816538931
1526 4 5 0.0643810002 48.9730000000 60.3690000000 46.8156538931
1527 4 5 0.0651340001 47.5100000000 61.1820000000 48.6306538931
1528 4 5 0.0651340001 45.7540000000 57.5980000000 50.5676538931
1529 4 5 0.0643810002 44.0820000000 56.1880000000 51.7026538931
1530 4 5 0.0643810002 41.2400000000 59.4180000000 51.4656538931
1531 4 5 0.0651340001 42.9020000000 60.7890000000 50.2866538931
1532 4 5 0.0651340001 44.9110000000 57.7880000000 48.0376538931
1533 4 5 0.0643810002 46.3810000000 56.9760000000 46.2556538931
1534 4 12 -0.2708210001 41.8660000000 54.8570000000 50.9246538931
1535 4 1 0.2576279998 41.1980000000 55.5130000000 51.7696538931
1536 4 1 0.2575330002 40.4520000000 57.1930000000 53.0886538931
1537 4 12 -0.2708220000 40.3810000000 58.2820000000 53.7166538931
1538 4 3 0.0508320000 39.4930000000 56.0910000000 53.1876538931
1539 4 3 -0.0462120000 38.3200000000 55.9580000000 53.9296538931
1540 4 3 -0.0304090000 37.6020000000 54.7480000000 53.8236538931
1541 4 3 0.0828099998 38.0530000000 53.7130000000 52.9746538931
1542 4 14 -0.3104160002 37.3180000000 52.5180000000 52.8996538931
1543 4 3 0.0828099998 37.3940000000 51.6330000000 51.8186538931
1544 4 3 -0.0304090000 37.2310000000 52.1000000000 50.4906538931
1545 4 3 -0.0462120000 37.3860000000 51.2270000000 49.4026538931
1546 4 3 0.0508320000 37.6980000000 49.8970000000 49.6686538931
1547 4 1 0.2575330002 38.0920000000 48.8220000000 48.7696538931
1548 4 12 -0.2708220000 38.1130000000 48.8990000000 47.5106538931
1549 4 1 0.2576279998 38.2940000000 48.0520000000 50.8786538931
1550 4 12 -0.2708210001 38.5720000000 47.3250000000 51.8676538931
1551 4 3 0.0532590000 37.8200000000 49.4280000000 50.9576538931
1552 4 3 -0.0178270000 37.6580000000 50.2690000000 52.0566538931
1553 4 3 -0.0178270000 39.2500000000 53.8820000000 52.2436538931
1554 4 3 0.0532590000 39.9510000000 55.0740000000 52.3816538931
1555 4 5 0.0632240003 37.9740000000 56.7550000000 54.5776538931
1556 4 5 0.0650900002 36.6930000000 54.6140000000 54.3936538931
1557 4 5 0.0650900002 37.0160000000 53.1440000000 50.3076538931
1558 4 5 0.0632240003 37.3150000000 51.5910000000 48.3846538931
1559 4 5 0.0659250001 37.8000000000 49.9000000000 53.0646538931
1560 4 5 0.0659250001 39.6430000000 53.1010000000 51.6076538931
1561 4 9 -0.2015900002 38.4770000000 47.6580000000 49.5126538931
1562 4 3 0.0441750000 39.4000000000 46.6430000000 49.0796538931
1563 4 3 -0.0373880000 40.4280000000 46.9490000000 48.1736538931
1564 4 3 -0.0293580000 41.3910000000 45.9970000000 47.8406538931
1565 4 3 0.0821070002 41.3230000000 44.6990000000 48.3826538931
1566 4 14 -0.3104650000 42.2960000000 43.7210000000 48.1166538931
1567 4 3 0.0821070002 43.2140000000 43.7350000000 47.0526538931
1568 4 3 -0.0293580000 42.8500000000 44.1570000000 45.7626538931
1569 4 3 -0.0373880000 43.7970000000 44.1770000000 44.7336538931
1570 4 3 0.0441750000 45.1120000000 43.7410000000 44.9676538931
1571 4 9 -0.2015900002 46.1030000000 43.8020000000 43.9246538931
1572 4 3 -0.0373880000 45.4580000000 43.2770000000 46.2456538931
1573 4 3 -0.0293580000 44.5160000000 43.2730000000 47.2786538931
1574 4 3 -0.0293580000 40.2850000000 44.3850000000 49.2686538931
1575 4 3 -0.0373880000 39.3340000000 45.3520000000 49.6196538931
1576 4 5 0.0643810002 40.5080000000 47.9390000000 47.7506538931
1577 4 5 0.0651340001 42.2070000000 46.2910000000 47.1936538931
1578 4 5 0.0651340001 41.8330000000 44.4740000000 45.5526538931
1579 4 5 0.0643810002 43.5000000000 44.5440000000 43.7576538931
1580 4 5 0.0643810002 46.4600000000 42.9170000000 46.4486538931
1581 4 5 0.0651340001 44.7980000000 42.9200000000 48.2616538931
1582 4 5 0.0651340001 40.2250000000 43.3960000000 49.7016538931
1583 4 5 0.0643810002 38.5510000000 45.0910000000 50.3186538931
1584 4 12 -0.2708210001 48.0160000000 44.5160000000 45.1526538931
1585 4 1 0.2576279998 47.4590000000 44.2410000000 44.0586538931
1586 4 1 0.2575330002 45.9080000000 43.6710000000 42.5116538931
1587 4 12 -0.2708220000 44.8440000000 43.2760000000 41.9706538931
1588 4 3 0.0508320000 47.1340000000 44.0240000000 41.8026538931
1589 4 3 -0.0462120000 47.4260000000 44.0490000000 40.4406538931
1590 4 3 -0.0304090000 48.7110000000 44.4640000000 40.0466538931
1591 4 3 0.0828099998 49.6670000000 44.8690000000 41.0096538931
1592 4 14 -0.3104160002 50.9400000000 45.2570000000 40.5696538931
1593 4 3 0.0828099998 51.8010000000 46.1130000000 41.2706538931
1594 4 3 -0.0304090000 51.3230000000 47.2920000000 41.8986538931
1595 4 3 -0.0462120000 52.2050000000 48.1510000000 42.5766538931
1596 4 3 0.0508320000 53.5490000000 47.7940000000 42.6386538931
1597 4 1 0.2575330002 54.6840000000 48.4570000000 43.2676538931
1598 4 12 -0.2708220000 54.6190000000 49.5220000000 43.9386538931
1599 4 1 0.2576279998 55.4630000000 46.6170000000 42.2066538931
1600 4 12 -0.2708210001 56.2210000000 45.7010000000 41.7896538931
1601 4 3 0.0532590000 54.0210000000 46.6680000000 42.0056538931
1602 4 3 -0.0178270000 53.1740000000 45.8100000000 41.3076538931
1603 4 3 -0.0178270000 49.3370000000 44.8310000000 42.3846538931
1604 4 3 0.0532590000 48.0710000000 44.3840000000 42.7446538931
1605 4 5 0.0632240003 46.6850000000 43.7580000000 39.7086538931
1606 4 5 0.0650900002 48.9650000000 44.4890000000 38.9956538931
1607 4 5 0.0650900002 50.2750000000 47.5460000000 41.8476538931
1608 4 5 0.0632240003 51.8490000000 49.0630000000 43.0346538931
1609 4 5 0.0659250001 53.5640000000 44.9310000000 40.8146538931
1610 4 5 0.0659250001 50.0450000000 45.1240000000 43.1456538931
1611 4 9 -0.2015900002 55.8940000000 47.7360000000 42.9976538931
1612 4 3 0.0441750000 57.2460000000 48.1820000000 43.2296538931
1613 4 3 -0.0373880000 58.2640000000 47.8890000000 42.3056538931
1614 4 3 -0.0293580000 59.5680000000 48.3330000000 42.5246538931
1615 4 3 0.0821070002 59.8860000000 49.0700000000 43.6666538931
1616 4 14 -0.3104650000 61.2100000000 49.5060000000 43.8276538931
1617 4 3 0.0821070002 61.8640000000 49.7500000000 45.0436538931
1618 4 3 -0.0293580000 62.9460000000 50.6380000000 45.0476538931
1619 4 3 -0.0373880000 63.6430000000 50.9050000000 46.2286538931
1620 4 3 0.0441750000 63.2730000000 50.2780000000 47.4286538931
1621 4 9 -0.2015900002 63.9890000000 50.5580000000 48.6446538931
1622 4 3 -0.0373880000 62.2060000000 49.3640000000 47.4216538931
1623 4 3 -0.0293580000 61.5130000000 49.0950000000 46.2366538931
1624 4 3 -0.0293580000 58.8700000000 49.3940000000 44.5796538931
1625 4 3 -0.0373880000 57.5630000000 48.9390000000 44.3706538931
1626 4 5 0.0643810002 58.0530000000 47.3440000000 41.3946538931
1627 4 5 0.0651340001 60.3400000000 48.1040000000 41.8006538931
1628 4 5 0.0651340001 63.2420000000 51.1300000000 44.1306538931
1629 4 5 0.0643810002 64.4520000000 51.6240000000 46.2126538931
1630 4 5 0.0643810002 61.9370000000 48.8290000000 48.3216538931
1631 4 5 0.0651340001 60.7270000000 48.3530000000 46.2486538931
1632 4 5 0.0651340001 59.0760000000 50.0110000000 45.4456538931
1633 4 5 0.0643810002 56.8080000000 49.1700000000 45.1086538931
1634 4 12 -0.2708210001 62.2620000000 50.4350000000 50.2776538931
1635 4 1 0.2576279998 63.4720000000 50.5950000000 49.9786538931
1636 4 1 0.2575330002 65.4030000000 50.7170000000 48.8026538931
1637 4 12 -0.2708220000 66.2360000000 50.6580000000 47.8596538931
1638 4 3 0.0508320000 65.7340000000 50.8650000000 50.2156538931
1639 4 3 -0.0462120000 66.9700000000 50.9450000000 50.8526538931
1640 4 3 -0.0304090000 66.9870000000 50.9720000000 52.2586538931
1641 4 3 0.0828099998 65.7810000000 50.9420000000 52.9966538931
1642 4 14 -0.3104160002 65.8440000000 50.9360000000 54.3946538931
1643 4 3 0.0828099998 64.8900000000 51.5600000000 55.2036538931
1644 4 3 -0.0304090000 64.7070000000 52.9620000000 55.1346538931
1645 4 3 -0.0462120000 63.7910000000 53.6080000000 55.9826538931
1646 4 3 0.0508320000 63.0640000000 52.8230000000 56.8716538931
1647 4 1 0.2575330002 62.0030000000 53.1830000000 57.7996538931
1648 4 12 -0.2708220000 61.6350000000 54.3600000000 58.0546538931
1649 4 1 0.2576279998 62.1870000000 50.9410000000 57.8216538931
1650 4 12 -0.2708210001 61.9880000000 49.7220000000 58.0716538931
1651 4 3 0.0532590000 63.1990000000 51.4550000000 56.9066538931
1652 4 3 -0.0178270000 64.1220000000 50.7920000000 56.1006538931
1653 4 3 -0.0178270000 64.5430000000 50.8640000000 52.3216538931
1654 4 3 0.0532590000 64.5570000000 50.8070000000 50.9286538931
1655 4 5 0.0632240003 67.8930000000 50.9570000000 50.2886538931
1656 4 5 0.0650900002 67.9330000000 51.0150000000 52.7836538931
1657 4 5 0.0650900002 65.2860000000 53.5480000000 54.4336538931
1658 4 5 0.0632240003 63.6400000000 54.6770000000 55.9296538931
1659 4 5 0.0659250001 64.2280000000 49.7170000000 56.1486538931
1660 4 5 0.0659250001 63.6110000000 50.7900000000 52.8666538931
1661 4 9 -0.2015900002 61.4130000000 52.0130000000 58.3806538931
1662 4 3 0.0441750000 60.0100000000 51.9420000000 58.6696538931
1663 4 3 -0.0373880000 59.4640000000 52.7260000000 59.6996538931
1664 4 3 -0.0293580000 58.0750000000 52.8420000000 59.8366538931
1665 4 3 0.0821070002 57.2280000000 52.2290000000 58.9036538931
1666 4 14 -0.3104650000 55.8710000000 52.5680000000 58.8606538931
1667 4 3 0.0821070002 55.2980000000 53.2160000000 57.7516538931
1668 4 3 -0.0293580000 56.0980000000 53.8660000000 56.7966538931
1669 4 3 -0.0373880000 55.5250000000 54.4950000000 55.6976538931
1670 4 3 0.0441750000 54.1370000000 54.4940000000 55.5266538931
1671 4 9 -0.2015900002 53.5550000000 55.1360000000 54.3826538931
1672 4 3 -0.0373880000 53.3260000000 53.8620000000 56.4856538931
1673 4 3 -0.0293580000 53.9040000000 53.2340000000 57.5966538931
1674 4 3 -0.0293580000 57.7670000000 51.3610000000 57.9416538931
1675 4 3 -0.0373880000 59.1510000000 51.2170000000 57.8266538931
1676 4 5 0.0643810002 60.1160000000 53.2880000000 60.3566538931
1677 4 5 0.0651340001 57.6620000000 53.4810000000 60.6056538931
1678 4 5 0.0651340001 57.1680000000 53.8980000000 56.9046538931
1679 4 5 0.0643810002 56.1720000000 54.9770000000 54.9756538931
1680 4 5 0.0643810002 52.2480000000 53.8750000000 56.3766538931
1681 4 5 0.0651340001 53.2730000000 52.7530000000 58.3336538931
1682 4 5 0.0651340001 57.1140000000 50.8650000000 57.2336538931
1683 4 5 0.0643810002 59.5520000000 50.6150000000 57.0206538931
1684 4 12 -0.2708210001 54.8840000000 57.1080000000 54.2126538931
1685 4 1 0.2576279998 54.0150000000 56.3290000000 53.7386538931
1686 4 1 0.2575330002 52.6600000000 54.5460000000 53.4346538931
1687 4 12 -0.2708220000 52.0810000000 53.4370000000 53.5926538931
1688 4 3 0.0508320000 52.5600000000 55.3920000000 52.2466538931
1689 4 3 -0.0462120000 51.8570000000 55.2240000000 51.0556538931
1690 4 3 -0.0304090000 51.9590000000 56.2350000000 50.0836538931
1691 4 3 0.0828099998 52.7410000000 57.3960000000 50.3226538931
1692 4 14 -0.3104160002 52.7710000000 58.4510000000 49.4036538931
1693 4 3 0.0828099998 52.7980000000 58.2770000000 48.0166538931
1694 4 3 -0.0304090000 53.5360000000 57.2170000000 47.4276538931
1695 4 3 -0.0462120000 53.6180000000 57.0960000000 46.0336538931
1696 4 3 0.0508320000 52.9490000000 58.0340000000 45.2536538931
1697 4 1 0.2575350000 52.8510000000 58.1720000000 43.8066538931
1698 4 12 -0.2708220000 53.5160000000 57.5080000000 42.9696538931
1699 4 1 0.2576290002 51.5920000000 59.8040000000 44.7366538931
1700 4 12 -0.2708210001 50.7800000000 60.7530000000 44.8876538931
1701 4 3 0.0532590000 52.2080000000 59.0460000000 45.8186538931
1702 4 3 -0.0178270000 52.1210000000 59.2020000000 47.1996538931
1703 4 3 -0.0178270000 53.4610000000 57.5190000000 51.5216538931
1704 4 3 0.0532590000 53.3630000000 56.4910000000 52.4526538931
1705 4 5 0.0632240003 51.2310000000 54.3530000000 50.8896538931
1706 4 5 0.0650900002 51.4040000000 56.1410000000 49.1626538931
1707 4 5 0.0650900002 54.0760000000 56.5110000000 48.0456538931
1708 4 5 0.0632240003 54.1850000000 56.2940000000 45.5826538931
1709 4 5 0.0659250001 51.5440000000 60.0090000000 47.6316538931
1710 4 5 0.0659250001 54.0710000000 58.3920000000 51.7166538931
1711 4 9 -0.2014969998 51.9870000000 59.2640000000 43.4696538931
1712 4 3 0.0466670000 51.4170000000 59.5600000000 42.1796538931
1713 4 3 -0.0177280000 51.2590000000 58.5460000000 41.2256538931
1714 4 3 0.0466670000 50.6840000000 58.8170000000 39.9776538931
1715 4 9 -0.2014969998 50.5120000000 57.7640000000 39.0126538931
1716 4 3 -0.0272890000 50.2300000000 60.1130000000 39.6946538931
1717 4 3 0.0407920000 50.3860000000 61.1500000000 40.6346538931
1718 4 1 0.2430250001 49.8670000000 62.5180000000 40.3746538931
1719 4 12 -0.2719520000 49.7780000000 63.3350000000 41.3306538931
1720 4 10 -0.3110300001 49.4430000000 62.9270000000 39.0646538931
1721 4 2 0.0153250000 48.5610000000 64.0740000000 38.8646538931
1722 4 2 -0.0121040000 47.1580000000 63.7700000000 39.4036538931
1723 4 3 -0.0436850000 46.2460000000 64.9520000000 39.2266538931
1724 4 3 -0.0561990001 45.4250000000 65.0550000000 38.0956538931
1725 4 3 -0.0291020000 44.5890000000 66.1630000000 37.9276538931
1726 4 3 0.1012170000 44.5770000000 67.1900000000 38.8796538931
1727 4 13 -0.3582220000 43.7340000000 68.2840000000 38.6866538931
1728 4 3 0.1014749999 45.4090000000 67.1020000000 40.0086538931
1729 4 13 -0.3582139999 45.4060000000 68.1200000000 40.9596538931
1730 4 3 -0.0261000000 46.2430000000 65.9850000000 40.1766538931
1731 4 3 -0.0272890000 50.9920000000 60.8610000000 41.8696538931
1732 4 5 0.0663080001 51.5230000000 57.5290000000 41.4756538931
1733 4 5 0.0651200002 49.7480000000 60.2950000000 38.7446538931
1734 4 7 0.1496919999 49.8130000000 62.4370000000 38.2186538931
1735 4 4 0.0470310000 48.9880000000 64.9670000000 39.3746538931
1736 4 4 0.0470310000 48.4940000000 64.2980000000 37.7766538931
1737 4 6 0.0332140000 47.2130000000 63.5130000000 40.4826538931
1738 4 6 0.0332140000 46.7410000000 62.8800000000 38.8786538931
1739 4 5 0.0626650000 45.4340000000 64.2790000000 37.3406538931
1740 4 5 0.0651460002 43.9580000000 66.2300000000 37.0506538931
1741 4 8 0.2183780000 43.6990000000 69.0580000000 39.3376538931
1742 4 8 0.2183780000 45.9960000000 68.0820000000 41.7826538931
1743 4 5 0.0654309999 46.8910000000 65.9260000000 41.0406538931
1744 4 5 0.0651200002 51.1430000000 61.6530000000 42.5906538931
1745 4 12 -0.2708210001 52.4930000000 56.4720000000 39.3306538931
1746 4 1 0.2576290002 51.3140000000 56.5790000000 38.8966538931
1747 4 1 0.2575350000 49.2730000000 57.4050000000 38.3916538931
1748 4 12 -0.2708220000 48.2540000000 58.1450000000 38.3576538931
1749 4 3 0.0508320000 49.3250000000 56.0290000000 37.9146538931
1750 4 3 -0.0462120000 48.3090000000 55.2130000000 37.4206538931
1751 4 3 -0.0304090000 48.5850000000 53.8450000000 37.2476538931
1752 4 3 0.0828099998 49.8540000000 53.3220000000 37.5896538931
1753 4 14 -0.3104160002 50.0790000000 51.9450000000 37.5146538931
1754 4 3 0.0828099998 49.4970000000 51.0370000000 38.4086538931
1755 4 3 -0.0304090000 49.3990000000 49.6760000000 38.0406538931
1756 4 3 -0.0462120000 48.8000000000 48.7380000000 38.9026538931
1757 4 3 0.0508320000 48.3470000000 49.1840000000 40.1406538931
1758 4 1 0.2575330002 47.6790000000 48.4780000000 41.2276538931
1759 4 12 -0.2708220000 47.2870000000 47.2830000000 41.1766538931
1760 4 1 0.2576279998 47.9510000000 50.6270000000 41.8776538931
1761 4 12 -0.2708210001 48.0080000000 51.6700000000 42.5816538931
1762 4 3 0.0532590000 48.4790000000 50.4990000000 40.5246538931
1763 4 3 -0.0178270000 49.0230000000 51.4540000000 39.6736538931
1764 4 3 -0.0178270000 50.8690000000 54.1720000000 38.0656538931
1765 4 3 0.0532590000 50.5690000000 55.5240000000 38.2256538931
1766 4 5 0.0632240003 47.3220000000 55.6080000000 37.2226538931
1767 4 5 0.0650900002 47.8070000000 53.1820000000 36.8926538931
1768 4 5 0.0650900002 49.7730000000 49.3500000000 37.0746538931
1769 4 5 0.0632240003 48.6980000000 47.7000000000 38.6156538931
1770 4 5 0.0659250001 49.0880000000 52.4870000000 39.9856538931
1771 4 5 0.0659250001 51.8260000000 53.7710000000 38.3786538931
1772 4 9 -0.2015900002 47.4460000000 49.3660000000 42.3306538931
1773 4 3 0.0441750000 46.7580000000 49.0720000000 43.5646538931
1774 4 3 -0.0373880000 46.7840000000 47.7780000000 44.1056538931
1775 4 3 -0.0293580000 46.0590000000 47.4690000000 45.2596538931
1776 4 3 0.0821070002 45.3120000000 48.4510000000 45.9146538931
1777 4 14 -0.3104650000 44.6190000000 48.0790000000 47.0806538931
1778 4 3 0.0821059998 43.6390000000 48.8280000000 47.7496538931
1779 4 3 -0.0294010000 43.5910000000 48.7530000000 49.1456538931
1780 4 3 -0.0387380000 42.6600000000 49.5050000000 49.8646538931
1781 4 3 0.0234370000 41.7510000000 50.3290000000 49.1886538931
1782 4 11 -0.3582950001 40.8140000000 51.1160000000 49.9236538931
1783 4 3 -0.0387380000 41.7690000000 50.3770000000 47.7876538931
1784 4 3 -0.0294010000 42.6930000000 49.6140000000 47.0686538931
1785 4 3 -0.0293580000 45.3370000000 49.7680000000 45.4166538931
1786 4 3 -0.0373880000 46.0350000000 50.0680000000 44.2436538931
1787 4 5 0.0643810002 47.3820000000 47.0050000000 43.6446538931
1788 4 5 0.0651340001 46.0880000000 46.4650000000 45.6626538931
1789 4 5 0.0651340001 44.2990000000 48.1270000000 49.6736538931
1790 4 5 0.0643380001 42.6520000000 49.4500000000 50.9446538931
1791 4 7 0.1426590002 40.1850000000 51.7860000000 49.4316538931
1792 4 7 0.1426590002 40.7540000000 51.0440000000 50.9646538931
1793 4 5 0.0643380001 41.0490000000 50.9850000000 47.2566538931
1794 4 5 0.0651340001 42.6600000000 49.6250000000 45.9846538931
1795 4 5 0.0651340001 44.8390000000 50.5740000000 45.9356538931
1796 4 5 0.0643810002 45.9860000000 51.0800000000 43.8646538931
1797 5 11 -0.3582950001 33.1440000000 44.4070000000 66.3716538931
1798 5 3 0.0234370000 32.8370000000 45.6150000000 67.0726538931
1799 5 3 -0.0387380000 32.1440000000 46.6490000000 66.4306538931
1800 5 3 -0.0294010000 31.8250000000 47.8200000000 67.1236538931
1801 5 3 0.0821059998 32.2090000000 47.9830000000 68.4596538931
1802 5 14 -0.3104650000 31.8450000000 49.1640000000 69.1256538931
1803 5 3 0.0821070002 32.4840000000 49.6920000000 70.2566538931
1804 5 3 -0.0293580000 33.8710000000 49.5890000000 70.4326538931
1805 5 3 -0.0373880000 34.4710000000 50.0520000000 71.6016538931
1806 5 3 0.0441750000 33.6960000000 50.6360000000 72.6156538931
1807 5 9 -0.2015900002 34.2980000000 51.0050000000 73.8656538931
1808 5 3 -0.0373880000 32.3190000000 50.8200000000 72.4006538931
1809 5 3 -0.0293580000 31.7210000000 50.3540000000 71.2266538931
1810 5 3 -0.0294010000 32.8960000000 46.9390000000 69.1056538931
1811 5 3 -0.0387380000 33.2140000000 45.7700000000 68.4126538931
1812 5 7 0.1426590002 33.6410000000 43.6190000000 66.8486538931
1813 5 7 0.1426590002 32.8870000000 44.2980000000 65.3646538931
1814 5 5 0.0643380001 31.8430000000 46.5410000000 65.3976538931
1815 5 5 0.0651340001 31.2730000000 48.6020000000 66.6186538931
1816 5 5 0.0651340001 34.4840000000 49.1390000000 69.6686538931
1817 5 5 0.0643810002 35.5440000000 49.9510000000 71.7146538931
1818 5 5 0.0643810002 31.6960000000 51.2770000000 73.1606538931
1819 5 5 0.0651340001 30.6550000000 50.4680000000 71.0876538931
1820 5 5 0.0651340001 33.1670000000 47.0130000000 70.1506538931
1821 5 5 0.0643380001 33.7450000000 44.9770000000 68.9226538931
1822 5 12 -0.2708210001 35.8900000000 49.2540000000 74.1686538931
1823 5 1 0.2576279998 35.3900000000 50.3530000000 74.5296538931
1824 5 1 0.2575330002 34.0200000000 52.1470000000 74.6846538931
1825 5 12 -0.2708220000 33.0920000000 52.9680000000 74.4706538931
1826 5 3 0.0508320000 34.9510000000 52.2080000000 75.8016538931
1827 5 3 -0.0462120000 35.1080000000 53.1570000000 76.8086538931
1828 5 3 -0.0304090000 36.1290000000 52.9540000000 77.7556538931
1829 5 3 0.0828099998 36.9520000000 51.8040000000 77.6846538931
1830 5 14 -0.3104160002 37.9560000000 51.6000000000 78.6326538931
1831 5 3 0.0828099998 37.8540000000 50.6770000000 79.6836538931
1832 5 3 -0.0304090000 39.0410000000 50.2340000000 80.3066538931
1833 5 3 -0.0462120000 38.9980000000 49.3150000000 81.3696538931
1834 5 3 0.0508320000 37.7520000000 48.8620000000 81.7926538931
1835 5 1 0.2575350000 37.3970000000 47.8980000000 82.8236538931
1836 5 12 -0.2708220000 38.2090000000 47.3120000000 83.5866538931
1837 5 1 0.2576290002 35.4780000000 48.6090000000 81.8546538931
1838 5 12 -0.2708210001 34.2650000000 48.7130000000 81.5316538931
1839 5 3 0.0532590000 36.5870000000 49.2960000000 81.2016538931
1840 5 3 -0.0178270000 36.6010000000 50.2000000000 80.1386538931
1841 5 3 -0.0178270000 36.7780000000 50.8720000000 76.6466538931
1842 5 3 0.0532590000 35.7780000000 51.1090000000 75.7116538931
1843 5 5 0.0632240003 34.4660000000 54.0260000000 76.8606538931
1844 5 5 0.0650900002 36.2740000000 53.6770000000 78.5436538931
1845 5 5 0.0650900002 39.9990000000 50.5730000000 79.9426538931
1846 5 5 0.0632240003 39.9100000000 48.9610000000 81.8366538931
1847 5 5 0.0659250001 35.6740000000 50.5220000000 79.6846538931
1848 5 5 0.0659250001 37.4130000000 50.0040000000 76.5606538931
1849 5 9 -0.2014969998 35.9760000000 47.7370000000 82.8756538931
1850 5 3 0.0466670000 35.2270000000 46.8020000000 83.6706538931
1851 5 3 -0.0177280000 35.7240000000 45.5120000000 83.8906538931
1852 5 3 0.0466670000 35.0070000000 44.5720000000 84.6526538931
1853 5 9 -0.2014969998 35.4770000000 43.2070000000 84.7856538931
1854 5 3 -0.0272890000 33.7920000000 44.9730000000 85.2346538931
1855 5 3 0.0407920000 33.2600000000 46.2540000000 84.9966538931
1856 5 1 0.2430250001 31.9440000000 46.6490000000 85.5436538931
1857 5 12 -0.2719520000 31.7220000000 47.8650000000 85.8016538931
1858 5 10 -0.3110300001 30.9020000000 45.6790000000 85.7446538931
1859 5 2 0.0153250000 29.5410000000 46.0700000000 86.1036538931
1860 5 2 -0.0121040000 28.7950000000 46.5640000000 84.8636538931
1861 5 3 -0.0436850000 27.4240000000 47.0700000000 85.2236538931
1862 5 3 -0.0561990001 26.3370000000 46.1850000000 85.2896538931
1863 5 3 -0.0291020000 25.0670000000 46.6550000000 85.6336538931
1864 5 3 0.1012170000 24.8670000000 48.0090000000 85.9196538931
1865 5 13 -0.3582220000 23.5850000000 48.4500000000 86.2466538931
1866 5 3 0.1014749999 25.9530000000 48.8990000000 85.8736538931
1867 5 13 -0.3582139999 25.7650000000 50.2500000000 86.1706538931
1868 5 3 -0.0261000000 27.2300000000 48.4260000000 85.5306538931
1869 5 3 -0.0272890000 33.9890000000 47.1650000000 84.2176538931
1870 5 5 0.0663080001 36.6480000000 45.2390000000 83.4146538931
1871 5 5 0.0651200002 33.2670000000 44.2980000000 85.8926538931
1872 5 7 0.1496919999 31.0670000000 44.6810000000 85.4916538931
1873 5 4 0.0470310000 29.5660000000 46.8600000000 86.8836538931
1874 5 4 0.0470310000 29.0110000000 45.1920000000 86.5286538931
1875 5 6 0.0332140000 29.3770000000 47.3770000000 84.3746538931
1876 5 6 0.0332140000 28.7120000000 45.7350000000 84.1276538931
1877 5 5 0.0626650000 26.4710000000 45.1310000000 85.0756538931
1878 5 5 0.0651460002 24.2330000000 45.9660000000 85.6726538931
1879 5 8 0.2183780000 23.3870000000 49.4230000000 86.4536538931
1880 5 8 0.2183780000 26.5360000000 50.9080000000 86.1436538931
1881 5 5 0.0654309999 28.0650000000 49.1130000000 85.4906538931
1882 5 5 0.0651200002 33.5990000000 48.1590000000 84.0376538931
1883 5 12 -0.2708210001 37.8180000000 43.3580000000 84.3306538931
1884 5 1 0.2576290002 36.7430000000 42.7000000000 84.3276538931
1885 5 1 0.2575350000 34.6460000000 42.0320000000 84.8046538931
1886 5 12 -0.2708220000 33.4250000000 42.0220000000 85.1086538931
1887 5 3 0.0508320000 35.3820000000 40.8730000000 84.3176538931
1888 5 3 -0.0462120000 34.9540000000 39.5710000000 84.0676538931
1889 5 3 -0.0304090000 35.8230000000 38.7110000000 83.3726538931
1890 5 3 0.0828099998 37.0690000000 39.1860000000 82.8966538931
1891 5 14 -0.3104160002 37.8690000000 38.4070000000 82.0516538931
1892 5 3 0.0828099998 37.5530000000 38.1330000000 80.7086538931
1893 5 3 -0.0304090000 36.2330000000 38.2670000000 80.1956538931
1894 5 3 -0.0462120000 35.9680000000 38.0800000000 78.8316538931
1895 5 3 0.0508320000 37.0310000000 37.7560000000 77.9966538931
1896 5 1 0.2575330002 37.1000000000 37.7080000000 76.5456538931
1897 5 12 -0.2708220000 36.1150000000 37.8390000000 75.7696538931
1898 5 1 0.2576279998 39.1940000000 37.4420000000 77.3356538931
1899 5 12 -0.2708210001 40.4470000000 37.3360000000 77.4006538931
1900 5 3 0.0532590000 38.3070000000 37.5950000000 78.4836538931
1901 5 3 -0.0178270000 38.5980000000 37.7640000000 79.8366538931
1902 5 3 -0.0178270000 37.5100000000 40.4760000000 83.2506538931
1903 5 3 0.0532590000 36.6410000000 41.2920000000 83.9736538931
1904 5 5 0.0632240003 33.9740000000 39.2400000000 84.3776538931
1905 5 5 0.0650900002 35.5060000000 37.7030000000 83.1476538931
1906 5 5 0.0650900002 35.4060000000 38.5220000000 80.8326538931
1907 5 5 0.0632240003 34.9710000000 38.2250000000 78.4366538931
1908 5 5 0.0659250001 39.6180000000 37.6850000000 80.1936538931
1909 5 5 0.0659250001 38.4660000000 40.8520000000 82.9046538931
1910 5 9 -0.2015900002 38.4530000000 37.5280000000 76.1086538931
1911 5 3 0.0441750000 39.0080000000 38.0120000000 74.8736538931
1912 5 3 -0.0373880000 40.1470000000 37.4040000000 74.3246538931
1913 5 3 -0.0293580000 40.7610000000 37.9440000000 73.1886538931
1914 5 3 0.0821070002 40.2530000000 39.1030000000 72.5916538931
1915 5 14 -0.3104650000 40.9320000000 39.6570000000 71.4946538931
1916 5 3 0.0821070002 40.9970000000 41.0280000000 71.1896538931
1917 5 3 -0.0293580000 40.9180000000 42.0160000000 72.1866538931
1918 5 3 -0.0373880000 40.9670000000 43.3710000000 71.8446538931
1919 5 3 0.0441750000 41.1210000000 43.7630000000 70.5036538931
1920 5 9 -0.2015900002 41.1390000000 45.1590000000 70.1446538931
1921 5 3 -0.0373880000 41.2380000000 42.7740000000 69.5166538931
1922 5 3 -0.0293580000 41.1890000000 41.4180000000 69.8596538931
1923 5 3 -0.0293580000 39.0700000000 39.6710000000 73.0936538931
1924 5 3 -0.0373880000 38.4660000000 39.1430000000 74.2366538931
1925 5 5 0.0643810002 40.5690000000 36.5220000000 74.7906538931
1926 5 5 0.0651340001 41.6570000000 37.4830000000 72.7906538931
1927 5 5 0.0651340001 40.8270000000 41.7410000000 73.2296538931
1928 5 5 0.0643810002 40.8540000000 44.1070000000 72.6276538931
1929 5 5 0.0643810002 41.3850000000 43.0510000000 68.4816538931
1930 5 5 0.0651340001 41.2890000000 40.6690000000 69.0876538931
1931 5 5 0.0651340001 38.6260000000 40.5320000000 72.6126538931
1932 5 5 0.0643810002 37.5930000000 39.6400000000 74.6346538931
1933 5 12 -0.2708210001 42.2300000000 46.1630000000 72.0096538931
1934 5 1 0.2576279998 41.5050000000 46.2640000000 70.9836538931
1935 5 1 0.2575330002 40.4180000000 45.7670000000 69.0676538931
1936 5 12 -0.2708220000 39.9300000000 45.1370000000 68.0926538931
1937 5 3 0.0508320000 40.3260000000 47.2070000000 69.2736538931
1938 5 3 -0.0462120000 39.6990000000 48.1900000000 68.5146538931
1939 5 3 -0.0304090000 39.7390000000 49.5130000000 68.9826538931
1940 5 3 0.0828099998 40.4170000000 49.8390000000 70.1836538931
1941 5 14 -0.3104160002 40.4680000000 51.1890000000 70.5566538931
1942 5 3 0.0828099998 40.9300000000 51.7120000000 71.7716538931
1943 5 3 -0.0304090000 41.7090000000 52.8870000000 71.7286538931
1944 5 3 -0.0462120000 42.2210000000 53.4570000000 72.9006538931
1945 5 3 0.0508320000 41.9060000000 52.8520000000 74.1126538931
1946 5 1 0.2575330002 42.1960000000 53.2720000000 75.4756538931
1947 5 12 -0.2708220000 42.8900000000 54.2740000000 75.7936538931
1948 5 1 0.2576279998 40.8360000000 51.4840000000 75.5936538931
1949 5 12 -0.2708210001 40.0680000000 50.5920000000 76.0396538931
1950 5 3 0.0532590000 41.0880000000 51.7480000000 74.1776538931
1951 5 3 -0.0178270000 40.5800000000 51.1470000000 73.0236538931
1952 5 3 -0.0178270000 41.0640000000 48.8180000000 70.9196538931
1953 5 3 0.0532590000 40.9830000000 47.5110000000 70.4416538931
1954 5 5 0.0632240003 39.1910000000 47.9420000000 67.5946538931
1955 5 5 0.0650900002 39.2510000000 50.2890000000 68.4076538931
1956 5 5 0.0650900002 41.9170000000 53.3550000000 70.7786538931
1957 5 5 0.0632240003 42.8280000000 54.3540000000 72.8656538931
1958 5 5 0.0659250001 39.9140000000 50.2960000000 73.0926538931
1959 5 5 0.0659250001 41.6180000000 49.0260000000 71.8226538931
1960 5 9 -0.2015900002 41.5460000000 52.4160000000 76.4186538931
1961 5 3 0.0441750000 41.0710000000 52.8900000000 77.6826538931
1962 5 3 -0.0373880000 41.7230000000 52.5180000000 78.8646538931
1963 5 3 -0.0293580000 41.2950000000 53.0370000000 80.0916538931
1964 5 3 0.0821070002 40.2080000000 53.9180000000 80.1556538931
1965 5 14 -0.3104650000 39.8100000000 54.4140000000 81.4076538931
1966 5 3 0.0821070002 38.5450000000 54.9480000000 81.6896538931
1967 5 3 -0.0293580000 37.3760000000 54.3520000000 81.1946538931
1968 5 3 -0.0373880000 36.1340000000 54.9630000000 81.3916538931
1969 5 3 0.0441750000 36.0390000000 56.1490000000 82.1306538931
1970 5 9 -0.2015900002 34.7780000000 56.8290000000 82.2346538931
1971 5 3 -0.0373880000 37.2000000000 56.6910000000 82.7086538931
1972 5 3 -0.0293580000 38.4440000000 56.0880000000 82.4896538931
1973 5 3 -0.0293580000 39.5750000000 54.3100000000 78.9596538931
1974 5 3 -0.0373880000 40.0040000000 53.7940000000 77.7346538931
1975 5 5 0.0643810002 42.5630000000 51.8340000000 78.8366538931
1976 5 5 0.0651340001 41.8000000000 52.7380000000 81.0036538931
1977 5 5 0.0651340001 37.4330000000 53.4280000000 80.6426538931
1978 5 5 0.0643810002 35.2440000000 54.5110000000 80.9706538931
1979 5 5 0.0643810002 37.1540000000 57.6040000000 83.2836538931
1980 5 5 0.0651340001 39.3340000000 56.5390000000 82.9006538931
1981 5 5 0.0651340001 38.7630000000 55.0270000000 78.9646538931
1982 5 5 0.0643810002 39.5100000000 54.1070000000 76.8216538931
1983 5 12 -0.2708210001 34.0360000000 56.7090000000 79.9736538931
1984 5 1 0.2576279998 33.9020000000 57.1460000000 81.1496538931
1985 5 1 0.2575330002 34.2900000000 57.6160000000 83.3276538931
1986 5 12 -0.2708220000 34.7780000000 57.6000000000 84.4886538931
1987 5 3 0.0508320000 33.1110000000 58.3780000000 82.9126538931
1988 5 3 -0.0462120000 32.2790000000 59.2430000000 83.6216538931
1989 5 3 -0.0304090000 31.1940000000 59.8290000000 82.9376538931
1990 5 3 0.0828099998 30.9720000000 59.5590000000 81.5686538931
1991 5 14 -0.3104160002 29.8770000000 60.1530000000 80.9196538931
1992 5 3 0.0828099998 29.8020000000 60.3260000000 79.5336538931
1993 5 3 -0.0304090000 30.8650000000 60.9390000000 78.8236538931
1994 5 3 -0.0462120000 30.8250000000 61.0400000000 77.4246538931
1995 5 3 0.0508320000 29.7140000000 60.5250000000 76.7616538931
1996 5 1 0.2575330002 29.4750000000 60.3210000000 75.3406538931
1997 5 12 -0.2708220000 30.2410000000 60.6990000000 74.4136538931
1998 5 1 0.2576279998 27.7500000000 59.3960000000 76.4606538931
1999 5 12 -0.2708210001 26.7030000000 58.7530000000 76.7296538931
2000 5 3 0.0532590000 28.6620000000 59.9620000000 77.4476538931
2001 5 3 -0.0178270000 28.6680000000 59.8610000000 78.8376538931
2002 5 3 -0.0178270000 31.8330000000 58.6710000000 80.8846538931
2003 5 3 0.0532590000 32.8820000000 58.0900000000 81.5866538931
2004 5 5 0.0632240003 32.4520000000 59.4510000000 84.6716538931
2005 5 5 0.0650900002 30.5270000000 60.4980000000 83.4646538931
2006 5 5 0.0650900002 31.7300000000 61.3070000000 79.3596538931
2007 5 5 0.0632240003 31.6580000000 61.4590000000 76.8746538931
2008 5 5 0.0659250001 27.8560000000 59.3770000000 79.3636538931
2009 5 5 0.0659250001 31.6780000000 58.4160000000 79.8456538931
2010 5 9 -0.2015900002 28.2490000000 59.6060000000 75.1336538931
2011 5 3 0.0441750000 27.9390000000 58.7640000000 74.0096538931
2012 5 3 -0.0373880000 28.9590000000 58.1040000000 73.3056538931
2013 5 3 -0.0293580000 28.6540000000 57.1980000000 72.2906538931
2014 5 3 0.0821070002 27.3140000000 56.9600000000 71.9306538931
2015 5 14 -0.3104650000 26.9540000000 56.0220000000 70.9486538931
2016 5 3 0.0821070002 27.8030000000 55.4860000000 69.9656538931
2017 5 3 -0.0293580000 28.7540000000 56.2740000000 69.2956538931
2018 5 3 -0.0373880000 29.5960000000 55.7000000000 68.3376538931
2019 5 3 0.0441750000 29.4760000000 54.3390000000 68.0076538931
2020 5 9 -0.2015900002 30.3700000000 53.7320000000 67.0566538931
2021 5 3 -0.0373880000 28.4930000000 53.5680000000 68.6466538931
2022 5 3 -0.0293580000 27.6620000000 54.1380000000 69.6166538931
2023 5 3 -0.0293580000 26.2960000000 57.6350000000 72.6156538931
2024 5 3 -0.0373880000 26.6060000000 58.5240000000 73.6526538931
2025 5 5 0.0643810002 29.9950000000 58.2620000000 73.5676538931
2026 5 5 0.0651340001 29.4640000000 56.6580000000 71.8176538931
2027 5 5 0.0651340001 28.8470000000 57.3320000000 69.5166538931
2028 5 5 0.0643810002 30.3480000000 56.3200000000 67.8646538931
2029 5 5 0.0643810002 28.3660000000 52.5210000000 68.3976538931
2030 5 5 0.0651340001 26.9140000000 53.5300000000 70.1066538931
2031 5 5 0.0651340001 25.2610000000 57.4550000000 72.3586538931
2032 5 5 0.0643810002 25.8020000000 59.0210000000 74.1786538931
2033 5 12 -0.2708210001 30.7620000000 51.6170000000 68.0806538931
2034 5 1 0.2576279998 31.0050000000 52.4540000000 67.1736538931
2035 5 1 0.2575330002 31.0010000000 54.3410000000 65.9226538931
2036 5 12 -0.2708220000 30.7050000000 55.4730000000 65.4636538931
2037 5 3 0.0508320000 32.0010000000 53.4380000000 65.3626538931
2038 5 3 -0.0462120000 32.8570000000 53.5860000000 64.2726538931
2039 5 3 -0.0304090000 33.7470000000 52.5370000000 63.9826538931
2040 5 3 0.0828099998 33.7860000000 51.3770000000 64.7936538931
2041 5 14 -0.3104160002 34.6780000000 50.3500000000 64.4536538931
2042 5 3 0.0828099998 35.1920000000 49.4080000000 65.3546538931
2043 5 3 -0.0304090000 35.6420000000 49.7870000000 66.6456538931
2044 5 3 -0.0462120000 36.1780000000 48.8320000000 67.5266538931
2045 5 3 0.0508320000 36.2230000000 47.5050000000 67.1076538931
2046 5 1 0.2575330002 36.6990000000 46.3050000000 67.7846538931
2047 5 12 -0.2708220000 37.1460000000 46.2690000000 68.9626538931
2048 5 1 0.2576279998 36.0510000000 45.7080000000 65.7006538931
2049 5 12 -0.2708210001 35.7650000000 45.0270000000 64.6806538931
2050 5 3 0.0532590000 35.8160000000 47.1380000000 65.8456538931
2051 5 3 -0.0178270000 35.3020000000 48.0680000000 64.9436538931
2052 5 3 -0.0178270000 32.9040000000 51.2590000000 65.8926538931
2053 5 3 0.0532590000 32.0120000000 52.2980000000 66.1336538931
2054 5 5 0.0632240003 32.8370000000 54.4840000000 63.6696538931
2055 5 5 0.0650900002 34.4190000000 52.6250000000 63.1396538931
2056 5 5 0.0650900002 35.5900000000 50.8190000000 66.9566538931
2057 5 5 0.0632240003 36.5440000000 49.1200000000 68.5026538931
2058 5 5 0.0659250001 34.9890000000 47.7610000000 63.9546538931
2059 5 5 0.0659250001 32.9010000000 50.3840000000 66.5256538931
2060 5 9 -0.2015900002 36.6070000000 45.1710000000 66.9116538931
2061 5 3 0.0441750000 37.1910000000 43.8680000000 67.1106538931
2062 5 3 -0.0373880000 37.7480000000 43.1610000000 66.0296538931
2063 5 3 -0.0293580000 38.3250000000 41.9070000000 66.2256538931
2064 5 3 0.0821070002 38.3550000000 41.3280000000 67.4956538931
2065 5 14 -0.3104650000 38.9630000000 40.0730000000 67.6396538931
2066 5 3 0.0821070002 38.6540000000 39.1030000000 68.6036538931
2067 5 3 -0.0293580000 39.6410000000 38.1710000000 68.9456538931
2068 5 3 -0.0373880000 39.3810000000 37.1730000000 69.8896538931
2069 5 3 0.0441750000 38.1210000000 37.0860000000 70.5016538931
2070 5 9 -0.2015900002 37.8580000000 36.0620000000 71.4756538931
2071 5 3 -0.0373880000 37.1200000000 38.0030000000 70.1386538931
2072 5 3 -0.0293580000 37.3820000000 38.9970000000 69.1896538931
2073 5 3 -0.0293580000 37.8290000000 42.0400000000 68.5866538931
2074 5 3 -0.0373880000 37.2370000000 43.2930000000 68.3916538931
2075 5 5 0.0643810002 37.7690000000 43.5870000000 65.0346538931
2076 5 5 0.0651340001 38.7550000000 41.3780000000 65.3846538931
2077 5 5 0.0651340001 40.6170000000 38.2260000000 68.4826538931
2078 5 5 0.0643810002 40.1730000000 36.4880000000 70.1626538931
2079 5 5 0.0643810002 36.1270000000 37.9230000000 70.5566538931
2080 5 5 0.0651340001 36.5810000000 39.6600000000 68.8936538931
2081 5 5 0.0651340001 37.8890000000 41.6400000000 69.5916538931
2082 5 5 0.0643810002 36.8060000000 43.8020000000 69.2426538931
2083 5 12 -0.2708210001 36.3890000000 37.1760000000 72.9826538931
2084 5 1 0.2576279998 37.0060000000 36.1410000000 72.6236538931
2085 5 1 0.2575330002 38.2740000000 34.6930000000 71.4316538931
2086 5 12 -0.2708220000 38.9750000000 34.1920000000 70.5126538931
2087 5 3 0.0508320000 37.6940000000 33.9580000000 72.5486538931
2088 5 3 -0.0462120000 37.7330000000 32.6000000000 72.8596538931
2089 5 3 -0.0304090000 36.9770000000 32.1510000000 73.9566538931
2090 5 3 0.0828099998 36.2190000000 33.0590000000 74.7316538931
2091 5 14 -0.3104160002 35.4540000000 32.5660000000 75.7946538931
2092 5 3 0.0828099998 35.2390000000 33.2820000000 76.9756538931
2093 5 3 -0.0304090000 36.3310000000 33.6200000000 77.8096538931
2094 5 3 -0.0462120000 36.1220000000 34.2900000000 79.0286538931
2095 5 3 0.0508320000 34.8150000000 34.6200000000 79.3716538931
2096 5 1 0.2575330002 34.2970000000 35.3730000000 80.5036538931
2097 5 12 -0.2708220000 34.9830000000 35.7640000000 81.4856538931
2098 5 1 0.2576279998 32.5710000000 34.9610000000 79.1226538931
2099 5 12 -0.2708210001 31.4190000000 34.9460000000 78.6096538931
2100 5 3 0.0532590000 33.7560000000 34.3410000000 78.5406538931
2101 5 3 -0.0178270000 33.9300000000 33.6490000000 77.3436538931
2102 5 3 -0.0178270000 36.2020000000 34.4300000000 74.3946538931
2103 5 3 0.0532590000 36.9350000000 34.8430000000 73.2836538931
2104 5 5 0.0632240003 38.3040000000 31.9040000000 72.2596538931
2105 5 5 0.0650900002 36.9730000000 31.0980000000 74.2116538931
2106 5 5 0.0650900002 37.3370000000 33.3510000000 77.5186538931
2107 5 5 0.0632240003 36.9520000000 34.5600000000 79.6666538931
2108 5 5 0.0659250001 33.0870000000 33.4230000000 76.7056538931
2109 5 5 0.0659250001 35.5900000000 35.1350000000 74.9436538931
2110 5 9 -0.2015900002 32.8960000000 35.6290000000 80.3496538931
2111 5 3 0.0441750000 32.3020000000 36.8590000000 80.7906538931
2112 5 3 -0.0373880000 32.2000000000 37.1370000000 82.1646538931
2113 5 3 -0.0293580000 31.8430000000 38.4190000000 82.5996538931
2114 5 3 0.0821070002 31.6520000000 39.4450000000 81.6646538931
2115 5 14 -0.3104650000 31.5780000000 40.7760000000 82.0896538931
2116 5 3 0.0821070002 32.5510000000 41.7280000000 81.7366538931
2117 5 3 -0.0293580000 33.8080000000 41.3360000000 81.2466538931
2118 5 3 -0.0373880000 34.7610000000 42.2830000000 80.8886538931
2119 5 3 0.0441750000 34.4820000000 43.6470000000 81.0156538931
2120 5 9 -0.2015900002 35.4670000000 44.6180000000 80.6326538931
2121 5 3 -0.0373880000 33.2350000000 44.0510000000 81.5206538931
2122 5 3 -0.0293580000 32.2770000000 43.0950000000 81.8876538931
2123 5 3 -0.0293580000 31.6490000000 39.1440000000 80.2936538931
2124 5 3 -0.0373880000 31.9710000000 37.8570000000 79.8596538931
2125 5 5 0.0643810002 32.4520000000 36.3750000000 82.8906538931
2126 5 5 0.0651340001 31.8070000000 38.6370000000 83.6576538931
2127 5 5 0.0651340001 34.0610000000 40.2940000000 81.1496538931
2128 5 5 0.0643810002 35.7140000000 41.9440000000 80.5046538931
2129 5 5 0.0643810002 33.0160000000 45.1050000000 81.6456538931
2130 5 5 0.0651340001 31.3200000000 43.4140000000 82.2806538931
2131 5 5 0.0651340001 31.4770000000 39.9300000000 79.5676538931
2132 5 5 0.0643810002 32.0530000000 37.6660000000 78.7966538931
2133 5 12 -0.2708210001 37.4690000000 43.6180000000 81.4546538931
2134 5 1 0.2576279998 36.8880000000 44.5060000000 80.7766538931
2135 5 1 0.2575330002 35.2900000000 45.6970000000 79.7086538931
2136 5 12 -0.2708220000 34.1750000000 46.0810000000 79.2636538931
2137 5 3 0.0508320000 36.5910000000 46.2470000000 79.3266538931
2138 5 3 -0.0462120000 36.9320000000 47.2630000000 78.4366538931
2139 5 3 -0.0304090000 38.2950000000 47.5720000000 78.2836538931
2140 5 3 0.0828099998 39.2850000000 46.8790000000 79.0286538931
2141 5 14 -0.3104160002 40.6340000000 47.2450000000 78.9566538931
2142 5 3 0.0828099998 41.2760000000 47.6300000000 77.7766538931
2143 5 3 -0.0304090000 40.9670000000 47.0060000000 76.5396538931
2144 5 3 -0.0462120000 41.6690000000 47.3480000000 75.3756538931
2145 5 3 0.0508320000 42.6620000000 48.3200000000 75.4696538931
2146 5 1 0.2575350000 43.5490000000 48.8740000000 74.4566538931
2147 5 12 -0.2708220000 43.6700000000 48.4370000000 73.2826538931
2148 5 1 0.2576290002 43.9770000000 49.9440000000 76.4016538931
2149 5 12 -0.2708210001 44.4220000000 50.7630000000 77.2476538931
2150 5 3 0.0532590000 42.9450000000 48.9490000000 76.6596538931
2151 5 3 -0.0178270000 42.2760000000 48.6190000000 77.8356538931
2152 5 3 -0.0178270000 38.9080000000 45.8400000000 79.8946538931
2153 5 3 0.0532590000 37.5550000000 45.5380000000 80.0046538931
2154 5 5 0.0632240003 36.1710000000 47.8160000000 77.8946538931
2155 5 5 0.0650900002 38.5850000000 48.3730000000 77.6196538931
2156 5 5 0.0650900002 40.2130000000 46.2310000000 76.4856538931
2157 5 5 0.0632240003 41.4420000000 46.8690000000 74.4336538931
2158 5 5 0.0659250001 42.5160000000 49.1140000000 78.7676538931
2159 5 5 0.0659250001 39.6500000000 45.2930000000 80.4616538931
2160 5 9 -0.2014969998 44.3630000000 49.9080000000 75.0216538931
2161 5 3 0.0466670000 45.1610000000 50.8770000000 74.3136538931
2162 5 3 -0.0177280000 44.8510000000 51.2180000000 72.9896538931
2163 5 3 0.0466670000 45.6050000000 52.1760000000 72.2996538931
2164 5 9 -0.2014969998 45.2670000000 52.5280000000 70.9466538931
2165 5 3 -0.0272890000 46.6590000000 52.8260000000 72.9556538931
2166 5 3 0.0407920000 46.9940000000 52.4950000000 74.2826538931
2167 5 1 0.2430250001 48.0760000000 53.2070000000 75.0116538931
2168 5 12 -0.2719520000 48.1630000000 53.0800000000 76.2626538931
2169 5 10 -0.3110300001 49.0120000000 54.0560000000 74.3286538931
2170 5 2 0.0153250000 49.7890000000 55.0700000000 75.0376538931
2171 5 2 -0.0121040000 48.8730000000 56.1980000000 75.5296538931
2172 5 3 -0.0436850000 49.6570000000 57.2360000000 76.2836538931
2173 5 3 -0.0561990001 50.1460000000 58.3730000000 75.6266538931
2174 5 3 -0.0291020000 50.8880000000 59.3300000000 76.3266538931
2175 5 3 0.1012170000 51.1630000000 59.1520000000 77.6896538931
2176 5 13 -0.3582220000 51.9040000000 60.1220000000 78.3626538931
2177 5 3 0.1014749999 50.6890000000 58.0070000000 78.3506538931
2178 5 13 -0.3582139999 50.9600000000 57.8210000000 79.7046538931
2179 5 3 -0.0261000000 49.9410000000 57.0520000000 77.6456538931
2180 5 3 -0.0272890000 46.2420000000 51.5090000000 74.9456538931
2181 5 5 0.0663080001 43.9830000000 50.7850000000 72.5146538931
2182 5 5 0.0651200002 47.2020000000 53.5950000000 72.4236538931
2183 5 7 0.1496919999 49.1970000000 53.9180000000 73.3096538931
2184 5 4 0.0470310000 50.3220000000 54.6000000000 75.8956538931
2185 5 4 0.0470310000 50.5520000000 55.4930000000 74.3476538931
2186 5 6 0.0332140000 48.0860000000 55.7850000000 76.1946538931
2187 5 6 0.0332140000 48.3540000000 56.6620000000 74.6606538931
2188 5 5 0.0626650000 49.9590000000 58.5190000000 74.5696538931
2189 5 5 0.0651460002 51.2590000000 60.2050000000 75.8086538931
2190 5 8 0.2183780000 52.1410000000 60.0330000000 79.3426538931
2191 5 8 0.2183780000 50.6300000000 57.0040000000 80.2056538931
2192 5 5 0.0654309999 49.5880000000 56.1650000000 78.1546538931
2193 5 5 0.0651200002 46.5050000000 51.2250000000 75.9566538931
2194 5 12 -0.2708210001 44.6050000000 50.4240000000 70.0356538931
2195 5 1 0.2576290002 44.6140000000 51.6840000000 69.9866538931
2196 5 1 0.2575350000 44.9970000000 53.8550000000 70.4806538931
2197 5 12 -0.2708220000 45.3250000000 54.9050000000 71.0946538931
2198 5 3 0.0508320000 44.1940000000 53.8120000000 69.2656538931
2199 5 3 -0.0462120000 43.5540000000 54.8410000000 68.5766538931
2200 5 3 -0.0304090000 42.6490000000 54.4930000000 67.5596538931
2201 5 3 0.0828099998 42.3880000000 53.1330000000 67.2676538931
2202 5 14 -0.3104160002 41.4070000000 52.8010000000 66.3296538931
2203 5 3 0.0828099998 40.0390000000 52.9800000000 66.5746538931
2204 5 3 -0.0304090000 39.1470000000 53.0460000000 65.4806538931
2205 5 3 -0.0462120000 37.7690000000 53.2490000000 65.6866538931
2206 5 3 0.0508320000 37.3100000000 53.3390000000 66.9976538931
2207 5 1 0.2575330002 35.9710000000 53.5610000000 67.5296538931
2208 5 12 -0.2708220000 34.9540000000 53.8240000000 66.8356538931
2209 5 1 0.2576279998 37.3730000000 53.3250000000 69.2886538931
2210 5 12 -0.2708210001 37.8170000000 53.1600000000 70.4556538931
2211 5 3 0.0532590000 38.1660000000 53.2320000000 68.0686538931
2212 5 3 -0.0178270000 39.5360000000 53.0790000000 67.8926538931
2213 5 3 -0.0178270000 43.0640000000 52.1140000000 67.9636538931
2214 5 3 0.0532590000 43.9580000000 52.4880000000 68.9656538931
2215 5 5 0.0632240003 43.7110000000 55.8760000000 68.8486538931
2216 5 5 0.0650900002 42.1160000000 55.2700000000 67.0266538931
2217 5 5 0.0650900002 39.5280000000 52.9590000000 64.4676538931
2218 5 5 0.0632240003 37.0850000000 53.3270000000 64.8516538931
2219 5 5 0.0659250001 40.1930000000 53.0280000000 68.7496538931
2220 5 5 0.0659250001 42.8310000000 51.0710000000 67.7826538931
2221 5 9 -0.2015900002 35.9930000000 53.5310000000 68.9646538931
2222 5 3 0.0441750000 34.8910000000 53.7680000000 69.8646538931
2223 5 3 -0.0373880000 33.5790000000 53.4420000000 69.4886538931
2224 5 3 -0.0293580000 32.5000000000 53.7380000000 70.3256538931
2225 5 3 0.0821070002 32.7080000000 54.3430000000 71.5686538931
2226 5 14 -0.3104650000 31.5810000000 54.5980000000 72.3696538931
2227 5 3 0.0821059998 31.5350000000 55.3940000000 73.5246538931
2228 5 3 -0.0294010000 30.6870000000 54.9990000000 74.5646538931
2229 5 3 -0.0387380000 30.6290000000 55.7340000000 75.7496538931
2230 5 3 0.0234370000 31.4090000000 56.8880000000 75.8996538931
2231 5 11 -0.3582950001 31.3670000000 57.6260000000 77.1206538931
2232 5 3 -0.0387380000 32.2300000000 57.3100000000 74.8456538931
2233 5 3 -0.0294010000 32.2780000000 56.5800000000 73.6546538931
2234 5 3 -0.0293580000 34.0270000000 54.6100000000 71.9816538931
2235 5 3 -0.0373880000 35.1030000000 54.3440000000 71.1296538931
2236 5 5 0.0643810002 33.3880000000 52.9400000000 68.5516538931
2237 5 5 0.0651340001 31.4930000000 53.4830000000 70.0206538931
2238 5 5 0.0651340001 30.0910000000 54.1020000000 74.4586538931
2239 5 5 0.0643380001 29.9830000000 55.4010000000 76.5516538931
2240 5 7 0.1426590002 31.9990000000 58.4430000000 77.2666538931
2241 5 7 0.1426590002 30.7150000000 57.3540000000 77.8906538931
2242 5 5 0.0643380001 32.8110000000 58.2180000000 74.9406538931
2243 5 5 0.0651340001 32.8810000000 56.9490000000 72.8316538931
2244 5 5 0.0651340001 34.2390000000 55.0030000000 72.9656538931
2245 5 5 0.0643810002 36.0960000000 54.6130000000 71.4626538931
2246 6 11 -0.3582950001 65.2590000000 21.7090000000 36.9936538931
2247 6 3 0.0234370000 65.0320000000 23.0940000000 36.7216538931
2248 6 3 -0.0387380000 64.9370000000 23.5500000000 35.4016538931
2249 6 3 -0.0294010000 64.6930000000 24.9000000000 35.1386538931
2250 6 3 0.0821059998 64.5590000000 25.8170000000 36.1876538931
2251 6 14 -0.3104650000 64.2880000000 27.1590000000 35.8786538931
2252 6 3 0.0821070002 64.5540000000 28.2570000000 36.7106538931
2253 6 3 -0.0293580000 65.6870000000 28.2960000000 37.5356538931
2254 6 3 -0.0373880000 65.8870000000 29.3610000000 38.4096538931
2255 6 3 0.0441750000 64.9620000000 30.4160000000 38.4686538931
2256 6 9 -0.2015900002 65.1090000000 31.4530000000 39.4516538931
2257 6 3 -0.0373880000 63.8750000000 30.4200000000 37.5776538931
2258 6 3 -0.0293580000 63.6780000000 29.3480000000 36.7026538931
2259 6 3 -0.0294010000 64.6450000000 25.3550000000 37.5136538931
2260 6 3 -0.0387380000 64.8890000000 24.0050000000 37.7756538931
2261 6 7 0.1426590002 65.3090000000 21.3530000000 37.9766538931
2262 6 7 0.1426590002 65.3920000000 21.0290000000 36.2106538931
2263 6 5 0.0643380001 65.0410000000 22.8560000000 34.5786538931
2264 6 5 0.0651340001 64.6030000000 25.2330000000 34.1126538931
2265 6 5 0.0651340001 66.4070000000 27.4940000000 37.5096538931
2266 6 5 0.0643810002 66.7660000000 29.3610000000 39.0426538931
2267 6 5 0.0643810002 63.1500000000 31.2250000000 37.5936538931
2268 6 5 0.0651340001 62.8170000000 29.3450000000 36.0476538931
2269 6 5 0.0651340001 64.5000000000 26.0280000000 38.3476538931
2270 6 5 0.0643380001 64.9550000000 23.6670000000 38.8006538931
2271 6 12 -0.2708210001 65.9430000000 30.2300000000 41.3216538931
2272 6 1 0.2576279998 65.6490000000 31.3260000000 40.7736538931
2273 6 1 0.2575330002 64.8450000000 32.8540000000 39.3126538931
2274 6 12 -0.2708220000 64.3200000000 33.3830000000 38.2986538931
2275 6 3 0.0508320000 65.2530000000 33.5680000000 40.5126538931
2276 6 3 -0.0462120000 65.2500000000 34.9290000000 40.8116538931
2277 6 3 -0.0304090000 65.7360000000 35.3300000000 42.0706538931
2278 6 3 0.0828099998 66.1910000000 34.3670000000 43.0016538931
2279 6 14 -0.3104160002 66.6600000000 34.7680000000 44.2536538931
2280 6 3 0.0828099998 65.9230000000 34.6290000000 45.4386538931
2281 6 3 -0.0304090000 66.6170000000 34.6490000000 46.6676538931
2282 6 3 -0.0462120000 65.9290000000 34.5220000000 47.8876538931
2283 6 3 0.0508320000 64.5450000000 34.3820000000 47.8456538931
2284 6 1 0.2575350000 63.5810000000 34.1940000000 48.9206538931
2285 6 12 -0.2708220000 63.8530000000 34.1740000000 50.1496538931
2286 6 1 0.2576290002 62.4440000000 34.1790000000 46.9626538931
2287 6 12 -0.2708210001 61.5220000000 34.0570000000 46.1126538931
2288 6 3 0.0532590000 63.8560000000 34.3720000000 46.6536538931
2289 6 3 -0.0178270000 64.5140000000 34.4880000000 45.4286538931
2290 6 3 -0.0178270000 66.1950000000 33.0020000000 42.6646538931
2291 6 3 0.0532590000 65.7320000000 32.6350000000 41.4066538931
2292 6 5 0.0632240003 64.8900000000 35.6560000000 40.0966538931
2293 6 5 0.0650900002 65.7480000000 36.3790000000 42.3246538931
2294 6 5 0.0650900002 67.6940000000 34.7260000000 46.6776538931
2295 6 5 0.0632240003 66.4630000000 34.5190000000 48.8306538931
2296 6 5 0.0659250001 63.9530000000 34.4710000000 44.5046538931
2297 6 5 0.0659250001 66.5630000000 32.2560000000 43.3506538931
2298 6 9 -0.2014969998 62.2620000000 34.0730000000 48.3796538931
2299 6 3 0.0466670000 61.0480000000 33.7650000000 49.0866538931
2300 6 3 -0.0177280000 61.0660000000 32.8520000000 50.1476538931
2301 6 3 0.0466670000 59.8930000000 32.5220000000 50.8496538931
2302 6 9 -0.2014969998 59.9010000000 31.4970000000 51.8736538931
2303 6 3 -0.0272890000 58.6970000000 33.1690000000 50.4896538931
2304 6 3 0.0407920000 58.6530000000 34.0630000000 49.4046538931
2305 6 1 0.2430250001 57.3800000000 34.6840000000 48.9766538931
2306 6 12 -0.2719520000 57.4020000000 35.8190000000 48.4236538931
2307 6 10 -0.3110300001 56.1280000000 33.9980000000 49.1406538931
2308 6 2 0.0153250000 54.8870000000 34.5050000000 48.5596538931
2309 6 2 -0.0121040000 54.8340000000 34.1720000000 47.0676538931
2310 6 3 -0.0436850000 53.6150000000 34.7730000000 46.4236538931
2311 6 3 -0.0561990001 52.3960000000 34.0770000000 46.4256538931
2312 6 3 -0.0291020000 51.2620000000 34.6410000000 45.8346538931
2313 6 3 0.1012170000 51.3280000000 35.9050000000 45.2406538931
2314 6 13 -0.3582220000 50.1830000000 36.4350000000 44.6476538931
2315 6 3 0.1014749999 52.5400000000 36.6170000000 45.2496538931
2316 6 13 -0.3582139999 52.6110000000 37.8840000000 44.6696538931
2317 6 3 -0.0261000000 53.6780000000 36.0510000000 45.8456538931
2318 6 3 -0.0272890000 59.8370000000 34.3600000000 48.7116538931
2319 6 5 0.0663080001 61.9970000000 32.3670000000 50.3806538931
2320 6 5 0.0651200002 57.8030000000 32.9970000000 51.0676538931
2321 6 7 0.1496919999 56.1110000000 33.0420000000 49.5566538931
2322 6 4 0.0470310000 54.8140000000 35.6020000000 48.7176538931
2323 6 4 0.0470310000 54.0260000000 34.0310000000 49.0746538931
2324 6 6 0.0332140000 55.7510000000 34.5570000000 46.5666538931
2325 6 6 0.0332140000 54.8290000000 33.0690000000 46.9356538931
2326 6 5 0.0626650000 52.3220000000 33.0980000000 46.8836538931
2327 6 5 0.0651460002 50.3310000000 34.0920000000 45.8336538931
2328 6 8 0.2183780000 50.1820000000 37.3430000000 44.1956538931
2329 6 8 0.2183780000 53.4750000000 38.4150000000 44.6666538931
2330 6 5 0.0654309999 54.6120000000 36.5980000000 45.8476538931
2331 6 5 0.0651200002 59.8200000000 35.0570000000 47.8826538931
2332 6 12 -0.2708210001 62.1870000000 31.3890000000 52.5606538931
2333 6 1 0.2576290002 61.0660000000 30.8360000000 52.4006538931
2334 6 1 0.2575350000 58.8520000000 30.5410000000 52.1126538931
2335 6 12 -0.2708220000 57.6510000000 30.6920000000 51.7666538931
2336 6 3 0.0508320000 59.3880000000 29.3260000000 52.7116538931
2337 6 3 -0.0462120000 58.7670000000 28.1170000000 53.0126538931
2338 6 3 -0.0304090000 59.5800000000 27.0250000000 53.3686538931
2339 6 3 0.0828099998 60.9900000000 27.1520000000 53.3606538931
2340 6 14 -0.3104160002 61.8200000000 26.0390000000 53.5356538931
2341 6 3 0.0828099998 61.9880000000 25.0290000000 52.5696538931
2342 6 3 -0.0304090000 61.0530000000 24.8190000000 51.5186538931
2343 6 3 -0.0462120000 61.2970000000 23.8690000000 50.5166538931
2344 6 3 0.0508320000 62.4750000000 23.1350000000 50.5846538931
2345 6 1 0.2575330002 63.0830000000 22.2510000000 49.6026538931
2346 6 12 -0.2708220000 62.5450000000 21.8910000000 48.5216538931
2347 6 1 0.2576279998 64.5620000000 22.5270000000 51.2826538931
2348 6 12 -0.2708210001 65.6180000000 22.4960000000 51.9676538931
2349 6 3 0.0532590000 63.3740000000 23.3060000000 51.6106538931
2350 6 3 -0.0178270000 63.1530000000 24.2360000000 52.6256538931
2351 6 3 -0.0178270000 61.5800000000 28.4140000000 53.1466538931
2352 6 3 0.0532590000 60.7450000000 29.4850000000 52.8346538931
2353 6 5 0.0632240003 57.6940000000 28.0140000000 52.9506538931
2354 6 5 0.0650900002 59.1230000000 26.0700000000 53.5846538931
2355 6 5 0.0650900002 60.1410000000 25.3860000000 51.4556538931
2356 6 5 0.0632240003 60.6040000000 23.7420000000 49.6946538931
2357 6 5 0.0659250001 63.8970000000 24.3950000000 53.3966538931
2358 6 5 0.0659250001 62.6580000000 28.5310000000 53.1486538931
2359 6 9 -0.2015900002 64.4020000000 21.8700000000 50.0156538931
2360 6 3 0.0441750000 65.4960000000 21.5520000000 49.1376538931
2361 6 3 -0.0373880000 66.5580000000 20.7540000000 49.5926538931
2362 6 3 -0.0293580000 67.6810000000 20.5400000000 48.7846538931
2363 6 3 0.0821070002 67.7630000000 21.1270000000 47.5176538931
2364 6 14 -0.3104650000 68.9330000000 20.9480000000 46.7606538931
2365 6 3 0.0821070002 69.4660000000 21.8850000000 45.8576538931
2366 6 3 -0.0293580000 69.2690000000 23.2680000000 46.0186538931
2367 6 3 -0.0373880000 69.7970000000 24.1690000000 45.0906538931
2368 6 3 0.0441750000 70.5540000000 23.7090000000 43.9996538931
2369 6 9 -0.2015900002 71.0730000000 24.6350000000 43.0236538931
2370 6 3 -0.0373880000 70.7810000000 22.3320000000 43.8636538931
2371 6 3 -0.0293580000 70.2510000000 21.4300000000 44.7926538931
2372 6 3 -0.0293580000 66.6720000000 21.8630000000 47.0296538931
2373 6 3 -0.0373880000 65.5580000000 22.0910000000 47.8406538931
2374 6 5 0.0643810002 66.5210000000 20.3160000000 50.5826538931
2375 6 5 0.0651340001 68.5060000000 19.9470000000 49.1576538931
2376 6 5 0.0651340001 68.7140000000 23.6500000000 46.8656538931
2377 6 5 0.0643810002 69.5870000000 25.2230000000 45.2146538931
2378 6 5 0.0643810002 71.3820000000 21.9560000000 43.0466538931
2379 6 5 0.0651340001 70.4420000000 20.3730000000 44.6776538931
2380 6 5 0.0651340001 66.6890000000 22.2760000000 46.0296538931
2381 6 5 0.0643810002 64.7620000000 22.7150000000 47.4596538931
2382 6 12 -0.2708210001 71.5800000000 26.5530000000 44.3426538931
2383 6 1 0.2576279998 71.3610000000 26.0270000000 43.2186538931
2384 6 1 0.2575330002 71.0090000000 24.4910000000 41.6006538931
2385 6 12 -0.2708220000 70.7900000000 23.4030000000 41.0036538931
2386 6 3 0.0508320000 71.2240000000 25.7790000000 40.9546538931
2387 6 3 -0.0462120000 71.2190000000 26.1260000000 39.6076538931
2388 6 3 -0.0304090000 71.4180000000 27.4750000000 39.2716538931
2389 6 3 0.0828099998 71.6400000000 28.4490000000 40.2756538931
2390 6 14 -0.3104160002 71.8930000000 29.7650000000 39.8626538931
2391 6 3 0.0828099998 71.9690000000 30.9040000000 40.6736538931
2392 6 3 -0.0304090000 72.9820000000 31.8450000000 40.3936538931
2393 6 3 -0.0462120000 73.1310000000 32.9990000000 41.1736538931
2394 6 3 0.0508320000 72.2260000000 33.2090000000 42.2086538931
2395 6 1 0.2575330002 72.0670000000 34.3490000000 43.0996538931
2396 6 12 -0.2708220000 72.8190000000 35.3590000000 43.1276538931
2397 6 1 0.2576279998 70.3510000000 32.9440000000 43.4826538931
2398 6 12 -0.2708210001 69.2670000000 32.4690000000 43.9096538931
2399 6 3 0.0532590000 71.1900000000 32.3380000000 42.4496538931
2400 6 3 -0.0178270000 71.0290000000 31.1690000000 41.7006538931
2401 6 3 -0.0178270000 71.6620000000 28.0580000000 41.6356538931
2402 6 3 0.0532590000 71.4330000000 26.7170000000 41.9376538931
2403 6 5 0.0632240003 71.0590000000 25.3810000000 38.8416538931
2404 6 5 0.0650900002 71.4110000000 27.7640000000 38.2276538931
2405 6 5 0.0650900002 73.6550000000 31.6750000000 39.5676538931
2406 6 5 0.0632240003 73.9160000000 33.7160000000 40.9636538931
2407 6 5 0.0659250001 70.1910000000 30.5080000000 41.8836538931
2408 6 5 0.0659250001 71.8580000000 28.7620000000 42.4306538931
2409 6 9 -0.2015900002 70.9040000000 34.1930000000 43.9176538931
2410 6 3 0.0441750000 70.1200000000 35.3080000000 44.3526538931
2411 6 3 -0.0373880000 70.1440000000 35.7040000000 45.6956538931
2412 6 3 -0.0293580000 69.4260000000 36.8350000000 46.1036538931
2413 6 3 0.0821070002 68.6690000000 37.5710000000 45.1836538931
2414 6 14 -0.3104650000 67.9630000000 38.6980000000 45.6346538931
2415 6 3 0.0821070002 66.8750000000 39.2780000000 44.9686538931
2416 6 3 -0.0293580000 65.8760000000 38.4880000000 44.3816538931
2417 6 3 -0.0373880000 64.8600000000 39.0810000000 43.6246538931
2418 6 3 0.0441750000 64.8000000000 40.4750000000 43.4916538931
2419 6 9 -0.2015900002 63.8220000000 41.0690000000 42.6246538931
2420 6 3 -0.0373880000 65.7460000000 41.2690000000 44.1626538931
2421 6 3 -0.0293580000 66.7740000000 40.6690000000 44.8996538931
2422 6 3 -0.0293580000 68.6740000000 37.1840000000 43.8286538931
2423 6 3 -0.0373880000 69.3910000000 36.0570000000 43.4216538931
2424 6 5 0.0643810002 70.7180000000 35.1440000000 46.4236538931
2425 6 5 0.0651340001 69.4430000000 37.1300000000 47.1466538931
2426 6 5 0.0651340001 65.8980000000 37.4160000000 44.4946538931
2427 6 5 0.0643810002 64.1170000000 38.4560000000 43.1466538931
2428 6 5 0.0643810002 65.7220000000 42.3450000000 44.0776538931
2429 6 5 0.0651340001 67.5210000000 41.2880000000 45.3736538931
2430 6 5 0.0651340001 68.1400000000 37.7580000000 43.0806538931
2431 6 5 0.0643810002 69.3880000000 35.7720000000 42.3756538931
2432 6 12 -0.2708210001 64.0070000000 39.6430000000 40.7246538931
2433 6 1 0.2576279998 63.5480000000 40.6810000000 41.2746538931
2434 6 1 0.2575330002 63.1730000000 42.3380000000 42.7686538931
2435 6 12 -0.2708220000 63.1530000000 43.0090000000 43.8346538931
2436 6 3 0.0508320000 62.4900000000 42.6980000000 41.5246538931
2437 6 3 -0.0462120000 61.7050000000 43.8020000000 41.1936538931
2438 6 3 -0.0304090000 61.1620000000 43.8640000000 39.8936538931
2439 6 3 0.0828099998 61.4240000000 42.8430000000 38.9526538931
2440 6 14 -0.3104160002 60.8600000000 42.9320000000 37.6686538931
2441 6 3 0.0828099998 61.3750000000 42.2640000000 36.5526538931
2442 6 3 -0.0304090000 62.7490000000 42.3640000000 36.2206538931
2443 6 3 -0.0462120000 63.2800000000 41.6300000000 35.1486538931
2444 6 3 0.0508320000 62.4190000000 40.8090000000 34.4256538931
2445 6 1 0.2575330002 62.7020000000 39.8120000000 33.4046538931
2446 6 12 -0.2708220000 63.8370000000 39.5900000000 32.9006538931
2447 6 1 0.2576279998 60.5030000000 39.6880000000 33.8836538931
2448 6 12 -0.2708210001 59.3050000000 39.3060000000 33.9236538931
2449 6 3 0.0532590000 61.0760000000 40.7360000000 34.7196538931
2450 6 3 -0.0178270000 60.5190000000 41.4640000000 35.7686538931
2451 6 3 -0.0178270000 62.2180000000 41.7360000000 39.3266538931
2452 6 3 0.0532590000 62.7240000000 41.6880000000 40.6206538931
2453 6 5 0.0632240003 61.5080000000 44.5860000000 41.9176538931
2454 6 5 0.0650900002 60.5430000000 44.7050000000 39.6116538931
2455 6 5 0.0650900002 63.4040000000 42.9880000000 36.8136538931
2456 6 5 0.0632240003 64.3390000000 41.6630000000 34.9246538931
2457 6 5 0.0659250001 59.4700000000 41.3650000000 36.0196538931
2458 6 5 0.0659250001 62.4150000000 40.9210000000 38.6446538931
2459 6 9 -0.2015900002 61.5110000000 39.0920000000 33.0576538931
2460 6 3 0.0441750000 61.4510000000 37.7480000000 32.5486538931
2461 6 3 -0.0373880000 62.4530000000 36.8170000000 32.8646538931
2462 6 3 -0.0293580000 62.3390000000 35.4850000000 32.4676538931
2463 6 3 0.0821070002 61.2300000000 35.0620000000 31.7106538931
2464 6 14 -0.3104650000 61.0460000000 33.7230000000 31.3296538931
2465 6 3 0.0821070002 62.0360000000 32.7270000000 31.3016538931
2466 6 3 -0.0293580000 63.3420000000 32.9900000000 30.8546538931
2467 6 3 -0.0373880000 64.3070000000 31.9780000000 30.8616538931
2468 6 3 0.0441750000 63.9730000000 30.6780000000 31.2786538931
2469 6 9 -0.2015900002 64.9730000000 29.6430000000 31.3306538931
2470 6 3 -0.0373880000 62.6560000000 30.4100000000 31.6796538931
2471 6 3 -0.0293580000 61.6950000000 31.4250000000 31.6896538931
2472 6 3 -0.0293580000 60.2410000000 35.9950000000 31.3746538931
2473 6 3 -0.0373880000 60.3470000000 37.3260000000 31.7966538931
2474 6 5 0.0643810002 63.3100000000 37.1130000000 33.4516538931
2475 6 5 0.0651340001 63.0970000000 34.7830000000 32.7886538931
2476 6 5 0.0651340001 63.6160000000 33.9800000000 30.5046538931
2477 6 5 0.0643810002 65.3170000000 32.2170000000 30.5496538931
2478 6 5 0.0643810002 62.3670000000 29.4110000000 31.9876538931
2479 6 5 0.0651340001 60.6850000000 31.2060000000 32.0076538931
2480 6 5 0.0651340001 59.3770000000 35.6840000000 30.8026538931
2481 6 5 0.0643810002 59.5620000000 38.0240000000 31.5396538931
2482 6 12 -0.2708210001 64.3730000000 28.5280000000 33.3486538931
2483 6 1 0.2576279998 65.1560000000 28.6830000000 32.3766538931
2484 6 1 0.2575330002 66.1280000000 29.4870000000 30.4966538931
2485 6 12 -0.2708220000 66.3390000000 30.1350000000 29.4406538931
2486 6 3 0.0508320000 66.9940000000 28.4420000000 31.0326538931
2487 6 3 -0.0462120000 68.2100000000 27.9400000000 30.5746538931
2488 6 3 -0.0304090000 68.8360000000 26.9310000000 31.3286538931
2489 6 3 0.0828099998 68.2550000000 26.4610000000 32.5316538931
2490 6 14 -0.3104160002 68.9070000000 25.4420000000 33.2386538931
2491 6 3 0.0828099998 68.7690000000 25.2090000000 34.6136538931
2492 6 3 -0.0304090000 68.7670000000 26.2760000000 35.5496538931
2493 6 3 -0.0462120000 68.6520000000 26.0210000000 36.9266538931
2494 6 3 0.0508320000 68.5070000000 24.6990000000 37.3396538931
2495 6 1 0.2575330002 68.3550000000 24.1260000000 38.6706538931
2496 6 12 -0.2708220000 68.2850000000 24.7890000000 39.7396538931
2497 6 1 0.2576279998 68.4300000000 22.4170000000 37.1896538931
2498 6 12 -0.2708210001 68.3930000000 21.2650000000 36.6816538931
2499 6 3 0.0532590000 68.5390000000 23.6600000000 36.4386538931
2500 6 3 -0.0178270000 68.6750000000 23.8820000000 35.0696538931
2501 6 3 -0.0178270000 67.0190000000 26.9930000000 32.9676538931
2502 6 3 0.0532590000 66.4080000000 27.9650000000 32.1836538931
2503 6 5 0.0632240003 68.6600000000 28.3170000000 29.6656538931
2504 6 5 0.0650900002 69.7800000000 26.5210000000 30.9926538931
2505 6 5 0.0650900002 68.8700000000 27.2950000000 35.2086538931
2506 6 5 0.0632240003 68.6750000000 26.8290000000 37.6446538931
2507 6 5 0.0659250001 68.7000000000 23.0520000000 34.3766538931
2508 6 5 0.0659250001 66.5440000000 26.6500000000 33.8746538931
2509 6 9 -0.2015900002 68.3140000000 22.6940000000 38.5936538931
2510 6 3 0.0441750000 68.4140000000 21.7600000000 39.6886538931
2511 6 3 -0.0373880000 69.1400000000 20.5640000000 39.5426538931
2512 6 3 -0.0293580000 69.2470000000 19.6680000000 40.6056538931
2513 6 3 0.0821070002 68.6320000000 19.9380000000 41.8296538931
2514 6 14 -0.3104650000 68.7880000000 19.0100000000 42.8696538931
2515 6 3 0.0821070002 67.8890000000 18.7800000000 43.9206538931
2516 6 3 -0.0293580000 68.3870000000 18.2360000000 45.1106538931
2517 6 3 -0.0373880000 67.5320000000 17.9710000000 46.1846538931
2518 6 3 0.0441750000 66.1580000000 18.2390000000 46.0806538931
2519 6 9 -0.2015900002 65.2820000000 17.9710000000 47.1886538931
2520 6 3 -0.0373880000 65.6520000000 18.7570000000 44.8776538931
2521 6 3 -0.0293580000 66.5090000000 19.0160000000 43.8026538931
2522 6 3 -0.0293580000 67.9320000000 21.1440000000 41.9936538931
2523 6 3 -0.0373880000 67.8100000000 22.0400000000 40.9256538931
2524 6 5 0.0643810002 69.6530000000 20.3310000000 38.6186538931
2525 6 5 0.0651340001 69.8140000000 18.7540000000 40.4796538931
2526 6 5 0.0651340001 69.4440000000 18.0250000000 45.2056538931
2527 6 5 0.0643810002 67.9480000000 17.5850000000 47.1066538931
2528 6 5 0.0643810002 64.5910000000 18.9220000000 44.7556538931
2529 6 5 0.0651340001 66.0870000000 19.3710000000 42.8726538931
2530 6 5 0.0651340001 67.4920000000 21.4050000000 42.9486538931
2531 6 5 0.0643810002 67.2330000000 22.9430000000 41.0676538931
2532 6 12 -0.2708210001 63.6920000000 19.7320000000 47.0016538931
2533 6 1 0.2576279998 64.1060000000 18.6910000000 47.5716538931
2534 6 1 0.2575330002 65.3100000000 16.8390000000 48.0646538931
2535 6 12 -0.2708220000 66.1540000000 15.9060000000 47.9956538931
2536 6 3 0.0508320000 64.1730000000 16.8840000000 48.9766538931
2537 6 3 -0.0462120000 63.7340000000 15.9610000000 49.9246538931
2538 6 3 -0.0304090000 62.5250000000 16.2250000000 50.5916538931
2539 6 3 0.0828099998 61.7910000000 17.4030000000 50.3196538931
2540 6 14 -0.3104160002 60.5750000000 17.6110000000 50.9796538931
2541 6 3 0.0828099998 60.1160000000 18.8780000000 51.3516538931
2542 6 3 -0.0304090000 60.8490000000 19.6550000000 52.2806538931
2543 6 3 -0.0462120000 60.3680000000 20.9060000000 52.7056538931
2544 6 3 0.0508320000 59.1650000000 21.3560000000 52.1696538931
2545 6 1 0.2575330002 58.4660000000 22.6190000000 52.3456538931
2546 6 12 -0.2708220000 58.7960000000 23.5190000000 53.1636538931
2547 6 1 0.2576279998 57.3650000000 21.4540000000 50.7686538931
2548 6 12 -0.2708210001 56.5400000000 21.1260000000 49.8736538931
2549 6 3 0.0532590000 58.4760000000 20.6290000000 51.2276538931
2550 6 3 -0.0178270000 58.9120000000 19.3720000000 50.8126538931
2551 6 3 -0.0178270000 62.2640000000 18.3210000000 49.3546538931
2552 6 3 0.0532590000 63.4500000000 18.0200000000 48.6876538931
2553 6 5 0.0632240003 64.2890000000 15.0550000000 50.1246538931
2554 6 5 0.0650900002 62.1480000000 15.5180000000 51.3196538931
2555 6 5 0.0650900002 61.7800000000 19.2810000000 52.6806538931
2556 6 5 0.0632240003 60.9260000000 21.5090000000 53.4066538931
2557 6 5 0.0659250001 58.3530000000 18.8040000000 50.0826538931
2558 6 5 0.0659250001 61.6940000000 19.2050000000 49.0956538931
2559 6 9 -0.2015900002 57.3530000000 22.7170000000 51.4486538931
2560 6 3 0.0441750000 56.9780000000 23.9650000000 50.8466538931
2561 6 3 -0.0373880000 56.4300000000 24.9890000000 51.6366538931
2562 6 3 -0.0293580000 56.2800000000 26.2790000000 51.1136538931
2563 6 3 0.0821070002 56.7400000000 26.5660000000 49.8206538931
2564 6 14 -0.3104650000 56.8580000000 27.8940000000 49.3976538931
2565 6 3 0.0821070002 58.1030000000 28.4760000000 49.1016538931
2566 6 3 -0.0293580000 59.3030000000 27.8900000000 49.5416538931
2567 6 3 -0.0373880000 60.5310000000 28.4650000000 49.2356538931
2568 6 3 0.0441750000 60.5920000000 29.6430000000 48.4856538931
2569 6 9 -0.2015900002 61.8640000000 30.2230000000 48.1636538931
2570 6 3 -0.0373880000 59.3980000000 30.2480000000 48.0546538931
2571 6 3 -0.0293580000 58.1600000000 29.6710000000 48.3696538931
2572 6 3 -0.0293580000 57.1880000000 25.5230000000 48.9966538931
2573 6 3 -0.0373880000 57.3050000000 24.2280000000 49.5066538931
2574 6 5 0.0643810002 56.1730000000 24.7970000000 52.6716538931
2575 6 5 0.0651340001 55.8970000000 27.0730000000 51.7406538931
2576 6 5 0.0651340001 59.2920000000 26.9910000000 50.1326538931
2577 6 5 0.0643810002 61.4340000000 27.9800000000 49.5816538931
2578 6 5 0.0643810002 59.4310000000 31.1740000000 47.4936538931
2579 6 5 0.0651340001 57.2450000000 30.1440000000 48.0386538931
2580 6 5 0.0651340001 57.5220000000 25.7350000000 47.9876538931
2581 6 5 0.0643810002 57.7380000000 23.4550000000 48.8846538931
2582 6 12 -0.2708210001 63.0570000000 29.9190000000 50.2056538931
2583 6 1 0.2576279998 63.0360000000 30.2370000000 48.9866538931
2584 6 1 0.2575330002 62.3460000000 30.5590000000 46.8586538931
2585 6 12 -0.2708220000 61.6310000000 30.5960000000 45.8216538931
2586 6 3 0.0508320000 63.7870000000 30.8030000000 46.9036538931
2587 6 3 -0.0462120000 64.6970000000 31.1150000000 45.8976538931
2588 6 3 -0.0304090000 66.0440000000 31.2970000000 46.2616538931
2589 6 3 0.0828099998 66.4520000000 31.1820000000 47.6166538931
2590 6 14 -0.3104160002 67.7680000000 31.4570000000 48.0036538931
2591 6 3 0.0828099998 68.8920000000 31.0920000000 47.2566538931
2592 6 3 -0.0304090000 68.9340000000 29.8590000000 46.5536538931
2593 6 3 -0.0462120000 70.0940000000 29.4690000000 45.8696538931
2594 6 3 0.0508320000 71.1890000000 30.3280000000 45.8936538931
2595 6 1 0.2575350000 72.5090000000 30.2010000000 45.2926538931
2596 6 12 -0.2708220000 72.9560000000 29.1630000000 44.7376538931
2597 6 1 0.2576290002 72.4170000000 32.2100000000 46.3256538931
2598 6 12 -0.2708210001 72.6980000000 33.3750000000 46.7106538931
2599 6 3 0.0532590000 71.1440000000 31.5370000000 46.5486538931
2600 6 3 -0.0178270000 70.0120000000 31.9440000000 47.2496538931
2601 6 3 -0.0178270000 65.5130000000 30.8360000000 48.6016538931
2602 6 3 0.0532590000 64.1940000000 30.6360000000 48.2086538931
2603 6 5 0.0632240003 64.3780000000 31.2370000000 44.8676538931
2604 6 5 0.0650900002 66.7650000000 31.5640000000 45.5046538931
2605 6 5 0.0650900002 68.0850000000 29.1870000000 46.5686538931
2606 6 5 0.0632240003 70.1310000000 28.5280000000 45.3406538931
2607 6 5 0.0659250001 69.9940000000 32.8930000000 47.7696538931
2608 6 5 0.0659250001 65.8070000000 30.7330000000 49.6386538931
2609 6 9 -0.2014969998 73.2820000000 31.3830000000 45.5376538931
2610 6 3 0.0466670000 74.5140000000 31.7690000000 44.8976538931
2611 6 3 -0.0177280000 74.8400000000 31.2700000000 43.6296538931
2612 6 3 0.0466670000 76.0230000000 31.6570000000 42.9876538931
2613 6 9 -0.2014969998 76.3380000000 31.1500000000 41.6786538931
2614 6 3 -0.0272890000 76.8720000000 32.5840000000 43.6086538931
2615 6 3 0.0407920000 76.5700000000 33.0920000000 44.8856538931
2616 6 1 0.2430250001 77.4310000000 34.1120000000 45.5406538931
2617 6 12 -0.2719520000 76.9920000000 34.7380000000 46.5416538931
2618 6 10 -0.3110300001 78.7450000000 34.4170000000 45.0456538931
2619 6 2 0.0153250000 79.4230000000 35.6660000000 45.3856538931
2620 6 2 -0.0121040000 78.7170000000 36.8550000000 44.7236538931
2621 6 3 -0.0436850000 79.3910000000 38.1500000000 45.0856538931
2622 6 3 -0.0561990001 80.3740000000 38.6980000000 44.2516538931
2623 6 3 -0.0291020000 81.0090000000 39.8940000000 44.5996538931
2624 6 3 0.1012170000 80.6800000000 40.5480000000 45.7936538931
2625 6 13 -0.3582220000 81.3290000000 41.7390000000 46.1156538931
2626 6 3 0.1014749999 79.7060000000 39.9960000000 46.6436538931
2627 6 13 -0.3582139999 79.3750000000 40.6370000000 47.8346538931
2628 6 3 -0.0261000000 79.0680000000 38.7980000000 46.2876538931
2629 6 3 -0.0272890000 75.3910000000 32.6660000000 45.5236538931
2630 6 5 0.0663080001 74.1420000000 30.6290000000 43.1106538931
2631 6 5 0.0651200002 77.7580000000 32.9060000000 43.0806538931
2632 6 7 0.1496919999 79.2660000000 33.7140000000 44.4746538931
2633 6 4 0.0470310000 79.4410000000 35.7920000000 46.4926538931
2634 6 4 0.0470310000 80.4750000000 35.6190000000 45.0276538931
2635 6 6 0.0332140000 77.6560000000 36.8950000000 45.0476538931
2636 6 6 0.0332140000 78.7140000000 36.7180000000 43.6176538931
2637 6 5 0.0626650000 80.6540000000 38.1980000000 43.3326538931
2638 6 5 0.0651460002 81.7660000000 40.3090000000 43.9446538931
2639 6 8 0.2183780000 81.1380000000 42.2420000000 46.9736538931
2640 6 8 0.2183780000 78.6770000000 40.2610000000 48.4656538931
2641 6 5 0.0654309999 78.3270000000 38.3680000000 46.9506538931
2642 6 5 0.0651200002 75.1600000000 33.0280000000 46.5176538931
2643 6 12 -0.2708210001 75.5550000000 28.9000000000 41.8156538931
2644 6 1 0.2576290002 75.9110000000 29.8960000000 41.1286538931
2645 6 1 0.2575350000 76.6260000000 31.9530000000 40.5286538931
2646 6 12 -0.2708220000 76.9530000000 33.1680000000 40.5726538931
2647 6 3 0.0508320000 76.3730000000 31.1980000000 39.3076538931
2648 6 3 -0.0462120000 76.3410000000 31.6230000000 37.9806538931
2649 6 3 -0.0304090000 75.8420000000 30.7340000000 37.0126538931
2650 6 3 0.0828099998 75.3690000000 29.4560000000 37.3916538931
2651 6 14 -0.3104160002 74.7770000000 28.6250000000 36.4366538931
2652 6 3 0.0828099998 73.5180000000 28.8940000000 35.8816538931
2653 6 3 -0.0304090000 73.1690000000 28.2970000000 34.6496538931
2654 6 3 -0.0462120000 71.9230000000 28.5610000000 34.0496538931
2655 6 3 0.0508320000 71.0340000000 29.3910000000 34.7256538931
2656 6 1 0.2575330002 69.7020000000 29.8620000000 34.3666538931
2657 6 12 -0.2708220000 69.1390000000 29.6560000000 33.2606538931
2658 6 1 0.2576279998 70.2010000000 30.7160000000 36.4006538931
2659 6 12 -0.2708210001 70.1010000000 31.2680000000 37.5276538931
2660 6 3 0.0532590000 71.3500000000 29.9410000000 35.9466538931
2661 6 3 -0.0178270000 72.5910000000 29.7340000000 36.5386538931
2662 6 3 -0.0178270000 75.4330000000 29.0430000000 38.7346538931
2663 6 3 0.0532590000 75.9340000000 29.9440000000 39.6736538931
2664 6 5 0.0632240003 76.6450000000 32.6250000000 37.7086538931
2665 6 5 0.0650900002 75.7790000000 31.0470000000 35.9786538931
2666 6 5 0.0650900002 73.8740000000 27.6410000000 34.1476538931
2667 6 5 0.0632240003 71.6610000000 28.1280000000 33.0926538931
2668 6 5 0.0659250001 72.8270000000 30.2020000000 37.4836538931
2669 6 5 0.0659250001 75.0250000000 28.0870000000 39.0406538931
2670 6 9 -0.2015900002 69.1590000000 30.6740000000 35.4186538931
2671 6 3 0.0441750000 67.8990000000 31.3760000000 35.4266538931
2672 6 3 -0.0373880000 66.7980000000 30.8730000000 34.7166538931
2673 6 3 -0.0293580000 65.5970000000 31.5850000000 34.6576538931
2674 6 3 0.0821070002 65.4590000000 32.8030000000 35.3286538931
2675 6 14 -0.3104650000 64.2190000000 33.4610000000 35.2436538931
2676 6 3 0.0821059998 63.9400000000 34.7810000000 35.6326538931
2677 6 3 -0.0294010000 62.6860000000 35.0530000000 36.1876538931
2678 6 3 -0.0387380000 62.3690000000 36.3400000000 36.6246538931
2679 6 3 0.0234370000 63.3020000000 37.3760000000 36.4936538931
2680 6 11 -0.3582950001 62.9860000000 38.6870000000 36.9626538931
2681 6 3 -0.0387380000 64.5460000000 37.1170000000 35.9026538931
2682 6 3 -0.0294010000 64.8570000000 35.8310000000 35.4536538931
2683 6 3 -0.0293580000 66.5370000000 33.2800000000 36.0986538931
2684 6 3 -0.0373880000 67.7490000000 32.5840000000 36.1296538931
2685 6 5 0.0643810002 66.8600000000 29.9160000000 34.2186538931
2686 6 5 0.0651340001 64.7580000000 31.1850000000 34.1036538931
2687 6 5 0.0651340001 61.9650000000 34.2530000000 36.3016538931
2688 6 5 0.0643380001 61.4000000000 36.5270000000 37.0706538931
2689 6 7 0.1426590002 63.7030000000 39.4450000000 36.9356538931
2690 6 7 0.1426590002 62.0410000000 38.9050000000 37.3516538931
2691 6 5 0.0643380001 65.2600000000 37.9190000000 35.7676538931
2692 6 5 0.0651340001 65.8050000000 35.6600000000 34.9536538931
2693 6 5 0.0651340001 66.4470000000 34.1760000000 36.6966538931
2694 6 5 0.0643810002 68.5690000000 33.0100000000 36.6896538931
2695 7 15 4.0000000000 27.7823034315 35.0593582514 3.0000000000
2696 7 16 -2.0000000000 39.2607678105 41.6864527505 5.3430317299
2697 7 16 -2.0000000000 35.4346130175 39.4774212508 3.7810105766
2698 7 15 4.0000000000 29.6953808280 38.3729055009 3.0000000000
2699 7 16 -2.0000000000 37.3476904140 38.3729055009 5.3430317299
2700 7 16 -2.0000000000 33.5215356210 36.1638740012 3.7810105766
2701 7 15 4.0000000000 31.6084582245 35.0593582514 3.0000000000
2702 7 16 -2.0000000000 31.6084582245 35.0593582514 5.3430317299
2703 7 16 -2.0000000000 31.6084582245 39.4774212508 3.7810105766
2704 7 15 4.0000000000 33.5215356210 38.3729055009 3.0000000000
2705 7 16 -2.0000000000 33.5215356210 38.3729055009 5.3430317299
2706 7 16 -2.0000000000 29.6953808280 36.1638740012 3.7810105766
2707 7 15 4.0000000000 35.4346130175 39.4774212508 6.1240423066
2708 7 16 -2.0000000000 35.4346130175 39.4774212508 8.4670740365
2709 7 16 -2.0000000000 31.6084582245 37.2683897511 6.9050528832
2710 7 15 4.0000000000 33.5215356210 36.1638740012 6.1240423066
2711 7 16 -2.0000000000 33.5215356210 36.1638740012 8.4670740365
2712 7 16 -2.0000000000 33.5215356210 40.5819370006 6.9050528832
2713 7 15 4.0000000000 31.6084582245 39.4774212508 6.1240423066
2714 7 16 -2.0000000000 31.6084582245 39.4774212508 8.4670740365
2715 7 16 -2.0000000000 35.4346130175 37.2683897511 6.9050528832
2716 7 15 4.0000000000 29.6953808280 36.1638740012 6.1240423066
2717 7 16 -2.0000000000 29.6953808280 36.1638740012 8.4670740365
2718 7 16 -2.0000000000 37.3476904140 40.5819370006 6.9050528832
2719 7 15 4.0000000000 31.6084582245 37.2683897511 9.2480846132
2720 7 16 -2.0000000000 31.6084582245 37.2683897511 11.5911163431
2721 7 16 -2.0000000000 31.6084582245 41.6864527505 10.0290951898
2722 7 15 4.0000000000 33.5215356210 40.5819370006 9.2480846132
2723 7 16 -2.0000000000 33.5215356210 40.5819370006 11.5911163431
2724 7 16 -2.0000000000 37.3476904140 38.3729055009 10.0290951898
2725 7 15 4.0000000000 35.4346130175 37.2683897511 9.2480846132
2726 7 16 -2.0000000000 35.4346130175 37.2683897511 11.5911163431
2727 7 16 -2.0000000000 35.4346130175 41.6864527505 10.0290951898
2728 7 15 4.0000000000 37.3476904140 40.5819370006 9.2480846132
2729 7 16 -2.0000000000 37.3476904140 40.5819370006 11.5911163431
2730 7 16 -2.0000000000 33.5215356210 38.3729055009 10.0290951898
2731 7 15 4.0000000000 31.6084582245 41.6864527505 3.0000000000
2732 7 16 -2.0000000000 43.0869226035 48.3135472495 5.3430317299
2733 7 16 -2.0000000000 39.2607678105 46.1045157498 3.7810105766
2734 7 15 4.0000000000 33.5215356210 45.0000000000 3.0000000000
2735 7 16 -2.0000000000 41.1738452070 45.0000000000 5.3430317299
2736 7 16 -2.0000000000 37.3476904140 42.7909685003 3.7810105766
2737 7 15 4.0000000000 35.4346130175 41.6864527505 3.0000000000
2738 7 16 -2.0000000000 35.4346130175 41.6864527505 5.3430317299
2739 7 16 -2.0000000000 35.4346130175 46.1045157498 3.7810105766
2740 7 15 4.0000000000 37.3476904140 45.0000000000 3.0000000000
2741 7 16 -2.0000000000 37.3476904140 45.0000000000 5.3430317299
2742 7 16 -2.0000000000 33.5215356210 42.7909685003 3.7810105766
2743 7 15 4.0000000000 39.2607678105 46.1045157498 6.1240423066
2744 7 16 -2.0000000000 39.2607678105 46.1045157498 8.4670740365
2745 7 16 -2.0000000000 35.4346130175 43.8954842502 6.9050528832
2746 7 15 4.0000000000 37.3476904140 42.7909685003 6.1240423066
2747 7 16 -2.0000000000 37.3476904140 42.7909685003 8.4670740365
2748 7 16 -2.0000000000 37.3476904140 47.2090314997 6.9050528832
2749 7 15 4.0000000000 35.4346130175 46.1045157498 6.1240423066
2750 7 16 -2.0000000000 35.4346130175 46.1045157498 8.4670740365
2751 7 16 -2.0000000000 39.2607678105 43.8954842502 6.9050528832
2752 7 15 4.0000000000 33.5215356210 42.7909685003 6.1240423066
2753 7 16 -2.0000000000 33.5215356210 42.7909685003 8.4670740365
2754 7 16 -2.0000000000 41.1738452070 47.2090314997 6.9050528832
2755 7 15 4.0000000000 35.4346130175 43.8954842502 9.2480846132
2756 7 16 -2.0000000000 35.4346130175 43.8954842502 11.5911163431
2757 7 16 -2.0000000000 35.4346130175 48.3135472495 10.0290951898
2758 7 15 4.0000000000 37.3476904140 47.2090314997 9.2480846132
2759 7 16 -2.0000000000 37.3476904140 47.2090314997 11.5911163431
2760 7 16 -2.0000000000 41.1738452070 45.0000000000 10.0290951898
2761 7 15 4.0000000000 39.2607678105 43.8954842502 9.2480846132
2762 7 16 -2.0000000000 39.2607678105 43.8954842502 11.5911163431
2763 7 16 -2.0000000000 39.2607678105 48.3135472495 10.0290951898
2764 7 15 4.0000000000 41.1738452070 47.2090314997 9.2480846132
2765 7 16 -2.0000000000 41.1738452070 47.2090314997 11.5911163431
2766 7 16 -2.0000000000 37.3476904140 45.0000000000 10.0290951898
2767 7 15 4.0000000000 35.4346130175 48.3135472495 3.0000000000
2768 7 16 -2.0000000000 46.9130773965 54.9406417486 5.3430317299
2769 7 16 -2.0000000000 43.0869226035 52.7316102489 3.7810105766
2770 7 15 4.0000000000 37.3476904140 51.6270944991 3.0000000000
2771 7 16 -2.0000000000 45.0000000000 51.6270944991 5.3430317299
2772 7 16 -2.0000000000 41.1738452070 49.4180629994 3.7810105766
2773 7 15 4.0000000000 39.2607678105 48.3135472495 3.0000000000
2774 7 16 -2.0000000000 39.2607678105 48.3135472495 5.3430317299
2775 7 16 -2.0000000000 39.2607678105 52.7316102489 3.7810105766
2776 7 15 4.0000000000 41.1738452070 51.6270944991 3.0000000000
2777 7 16 -2.0000000000 41.1738452070 51.6270944991 5.3430317299
2778 7 16 -2.0000000000 37.3476904140 49.4180629994 3.7810105766
2779 7 15 4.0000000000 43.0869226035 52.7316102489 6.1240423066
2780 7 16 -2.0000000000 43.0869226035 52.7316102489 8.4670740365
2781 7 16 -2.0000000000 39.2607678105 50.5225787492 6.9050528832
2782 7 15 4.0000000000 41.1738452070 49.4180629994 6.1240423066
2783 7 16 -2.0000000000 41.1738452070 49.4180629994 8.4670740365
2784 7 16 -2.0000000000 41.1738452070 53.8361259988 6.9050528832
2785 7 15 4.0000000000 39.2607678105 52.7316102489 6.1240423066
2786 7 16 -2.0000000000 39.2607678105 52.7316102489 8.4670740365
2787 7 16 -2.0000000000 43.0869226035 50.5225787492 6.9050528832
2788 7 15 4.0000000000 37.3476904140 49.4180629994 6.1240423066
2789 7 16 -2.0000000000 37.3476904140 49.4180629994 8.4670740365
2790 7 16 -2.0000000000 45.0000000000 53.8361259988 6.9050528832
2791 7 15 4.0000000000 39.2607678105 50.5225787492 9.2480846132
2792 7 16 -2.0000000000 39.2607678105 50.5225787492 11.5911163431
2793 7 16 -2.0000000000 39.2607678105 54.9406417486 10.0290951898
2794 7 15 4.0000000000 41.1738452070 53.8361259988 9.2480846132
2795 7 16 -2.0000000000 41.1738452070 53.8361259988 11.5911163431
2796 7 16 -2.0000000000 45.0000000000 51.6270944991 10.0290951898
2797 7 15 4.0000000000 43.0869226035 50.5225787492 9.2480846132
2798 7 16 -2.0000000000 43.0869226035 50.5225787492 11.5911163431
2799 7 16 -2.0000000000 43.0869226035 54.9406417486 10.0290951898
2800 7 15 4.0000000000 45.0000000000 53.8361259988 9.2480846132
2801 7 16 -2.0000000000 45.0000000000 53.8361259988 11.5911163431
2802 7 16 -2.0000000000 41.1738452070 51.6270944991 10.0290951898
2803 7 15 4.0000000000 35.4346130175 35.0593582514 3.0000000000
2804 7 16 -2.0000000000 46.9130773965 41.6864527505 5.3430317299
2805 7 16 -2.0000000000 43.0869226035 39.4774212508 3.7810105766
2806 7 15 4.0000000000 37.3476904140 38.3729055009 3.0000000000
2807 7 16 -2.0000000000 45.0000000000 38.3729055009 5.3430317299
2808 7 16 -2.0000000000 41.1738452070 36.1638740012 3.7810105766
2809 7 15 4.0000000000 39.2607678105 35.0593582514 3.0000000000
2810 7 16 -2.0000000000 39.2607678105 35.0593582514 5.3430317299
2811 7 16 -2.0000000000 39.2607678105 39.4774212508 3.7810105766
2812 7 15 4.0000000000 41.1738452070 38.3729055009 3.0000000000
2813 7 16 -2.0000000000 41.1738452070 38.3729055009 5.3430317299
2814 7 16 -2.0000000000 37.3476904140 36.1638740012 3.7810105766
2815 7 15 4.0000000000 43.0869226035 39.4774212508 6.1240423066
2816 7 16 -2.0000000000 43.0869226035 39.4774212508 8.4670740365
2817 7 16 -2.0000000000 39.2607678105 37.2683897511 6.9050528832
2818 7 15 4.0000000000 41.1738452070 36.1638740012 6.1240423066
2819 7 16 -2.0000000000 41.1738452070 36.1638740012 8.4670740365
2820 7 16 -2.0000000000 41.1738452070 40.5819370006 6.9050528832
2821 7 15 4.0000000000 39.2607678105 39.4774212508 6.1240423066
2822 7 16 -2.0000000000 39.2607678105 39.4774212508 8.4670740365
2823 7 16 -2.0000000000 43.0869226035 37.2683897511 6.9050528832
2824 7 15 4.0000000000 37.3476904140 36.1638740012 6.1240423066
2825 7 16 -2.0000000000 37.3476904140 36.1638740012 8.4670740365
2826 7 16 -2.0000000000 45.0000000000 40.5819370006 6.9050528832
2827 7 15 4.0000000000 39.2607678105 37.2683897511 9.2480846132
2828 7 16 -2.0000000000 39.2607678105 37.2683897511 11.5911163431
2829 7 16 -2.0000000000 39.2607678105 41.6864527505 10.0290951898
2830 7 15 4.0000000000 41.1738452070 40.5819370006 9.2480846132
2831 7 16 -2.0000000000 41.1738452070 40.5819370006 11.5911163431
2832 7 16 -2.0000000000 45.0000000000 38.3729055009 10.0290951898
2833 7 15 4.0000000000 43.0869226035 37.2683897511 9.2480846132
2834 7 16 -2.0000000000 43.0869226035 37.2683897511 11.5911163431
2835 7 16 -2.0000000000 43.0869226035 41.6864527505 10.0290951898
2836 7 15 4.0000000000 45.0000000000 40.5819370006 9.2480846132
2837 7 16 -2.0000000000 45.0000000000 40.5819370006 11.5911163431
2838 7 16 -2.0000000000 41.1738452070 38.3729055009 10.0290951898
2839 7 15 4.0000000000 39.2607678105 41.6864527505 3.0000000000
2840 7 16 -2.0000000000 50.7392321895 48.3135472495 5.3430317299
2841 7 16 -2.0000000000 46.9130773965 46.1045157498 3.7810105766
2842 7 15 4.0000000000 41.1738452070 45.0000000000 3.0000000000
2843 7 16 -2.0000000000 48.8261547930 45.0000000000 5.3430317299
2844 7 16 -2.0000000000 45.0000000000 42.7909685003 3.7810105766
2845 7 15 4.0000000000 43.0869226035 41.6864527505 3.0000000000
2846 7 16 -2.0000000000 43.0869226035 41.6864527505 5.3430317299
2847 7 16 -2.0000000000 43.0869226035 46.1045157498 3.7810105766
2848 7 15 4.0000000000 45.0000000000 45.0000000000 3.0000000000
2849 7 16 -2.0000000000 45.0000000000 45.0000000000 5.3430317299
2850 7 16 -2.0000000000 41.1738452070 42.7909685003 3.7810105766
2851 7 15 4.0000000000 46.9130773965 46.1045157498 6.1240423066
2852 7 16 -2.0000000000 46.9130773965 46.1045157498 8.4670740365
2853 7 16 -2.0000000000 43.0869226035 43.8954842502 6.9050528832
2854 7 15 4.0000000000 45.0000000000 42.7909685003 6.1240423066
2855 7 16 -2.0000000000 45.0000000000 42.7909685003 8.4670740365
2856 7 16 -2.0000000000 45.0000000000 47.2090314997 6.9050528832
2857 7 15 4.0000000000 43.0869226035 46.1045157498 6.1240423066
2858 7 16 -2.0000000000 43.0869226035 46.1045157498 8.4670740365
2859 7 16 -2.0000000000 46.9130773965 43.8954842502 6.9050528832
2860 7 15 4.0000000000 41.1738452070 42.7909685003 6.1240423066
2861 7 16 -2.0000000000 41.1738452070 42.7909685003 8.4670740365
2862 7 16 -2.0000000000 48.8261547930 47.2090314997 6.9050528832
2863 7 15 4.0000000000 43.0869226035 43.8954842502 9.2480846132
2864 7 16 -2.0000000000 43.0869226035 43.8954842502 11.5911163431
2865 7 16 -2.0000000000 43.0869226035 48.3135472495 10.0290951898
2866 7 15 4.0000000000 45.0000000000 47.2090314997 9.2480846132
2867 7 16 -2.0000000000 45.0000000000 47.2090314997 11.5911163431
2868 7 16 -2.0000000000 48.8261547930 45.0000000000 10.0290951898
2869 7 15 4.0000000000 46.9130773965 43.8954842502 9.2480846132
2870 7 16 -2.0000000000 46.9130773965 43.8954842502 11.5911163431
2871 7 16 -2.0000000000 46.9130773965 48.3135472495 10.0290951898
2872 7 15 4.0000000000 48.8261547930 47.2090314997 9.2480846132
2873 7 16 -2.0000000000 48.8261547930 47.2090314997 11.5911163431
2874 7 16 -2.0000000000 45.0000000000 45.0000000000 10.0290951898
2875 7 15 4.0000000000 43.0869226035 48.3135472495 3.0000000000
2876 7 16 -2.0000000000 54.5653869825 54.9406417486 5.3430317299
2877 7 16 -2.0000000000 50.7392321895 52.7316102489 3.7810105766
2878 7 15 4.0000000000 45.0000000000 51.6270944991 3.0000000000
2879 7 16 -2.0000000000 52.6523095860 51.6270944991 5.3430317299
2880 7 16 -2.0000000000 48.8261547930 49.4180629994 3.7810105766
2881 7 15 4.0000000000 46.9130773965 48.3135472495 3.0000000000
2882 7 16 -2.0000000000 46.9130773965 48.3135472495 5.3430317299
2883 7 16 -2.0000000000 46.9130773965 52.7316102489 3.7810105766
2884 7 15 4.0000000000 48.8261547930 51.6270944991 3.0000000000
2885 7 16 -2.0000000000 48.8261547930 51.6270944991 5.3430317299
2886 7 16 -2.0000000000 45.0000000000 49.4180629994 3.7810105766
2887 7 15 4.0000000000 50.7392321895 52.7316102489 6.1240423066
2888 7 16 -2.0000000000 50.7392321895 52.7316102489 8.4670740365
2889 7 16 -2.0000000000 46.9130773965 50.5225787492 6.9050528832
2890 7 15 4.0000000000 48.8261547930 49.4180629994 6.1240423066
2891 7 16 -2.0000000000 48.8261547930 49.4180629994 8.4670740365
2892 7 16 -2.0000000000 48.8261547930 53.8361259988 6.9050528832
2893 7 15 4.0000000000 46.9130773965 52.7316102489 6.1240423066
2894 7 16 -2.0000000000 46.9130773965 52.7316102489 8.4670740365
2895 7 16 -2.0000000000 50.7392321895 50.5225787492 6.9050528832
2896 7 15 4.0000000000 45.0000000000 49.4180629994 6.1240423066
2897 7 16 -2.0000000000 45.0000000000 49.4180629994 8.4670740365
2898 7 16 -2.0000000000 52.6523095860 53.8361259988 6.9050528832
2899 7 15 4.0000000000 46.9130773965 50.5225787492 9.2480846132
2900 7 16 -2.0000000000 46.9130773965 50.5225787492 11.5911163431
2901 7 16 -2.0000000000 46.9130773965 54.9406417486 10.0290951898
2902 7 15 4.0000000000 48.8261547930 53.8361259988 9.2480846132
2903 7 16 -2.0000000000 48.8261547930 53.8361259988 11.5911163431
2904 7 16 -2.0000000000 52.6523095860 51.6270944991 10.0290951898
2905 7 15 4.0000000000 50.7392321895 50.5225787492 9.2480846132
2906 7 16 -2.0000000000 50.7392321895 50.5225787492 11.5911163431
2907 7 16 -2.0000000000 50.7392321895 54.9406417486 10.0290951898
2908 7 15 4.0000000000 52.6523095860 53.8361259988 9.2480846132
2909 7 16 -2.0000000000 52.6523095860 53.8361259988 11.5911163431
2910 7 16 -2.0000000000 48.8261547930 51.6270944991 10.0290951898
2911 7 15 4.0000000000 43.0869226035 35.0593582514 3.0000000000
2912 7 16 -2.0000000000 54.5653869825 41.6864527505 5.3430317299
2913 7 16 -2.0000000000 50.7392321895 39.4774212508 3.7810105766
2914 7 15 4.0000000000 45.0000000000 38.3729055009 3.0000000000
2915 7 16 -2.0000000000 52.6523095860 38.3729055009 5.3430317299
2916 7 16 -2.0000000000 48.8261547930 36.1638740012 3.7810105766
2917 7 15 4.0000000000 46.9130773965 35.0593582514 3.0000000000
2918 7 16 -2.0000000000 46.9130773965 35.0593582514 5.3430317299
2919 7 16 -2.0000000000 46.9130773965 39.4774212508 3.7810105766
2920 7 15 4.0000000000 48.8261547930 38.3729055009 3.0000000000
2921 7 16 -2.0000000000 48.8261547930 38.3729055009 5.3430317299
2922 7 16 -2.0000000000 45.0000000000 36.1638740012 3.7810105766
2923 7 15 4.0000000000 50.7392321895 39.4774212508 6.1240423066
2924 7 16 -2.0000000000 50.7392321895 39.4774212508 8.4670740365
2925 7 16 -2.0000000000 46.9130773965 37.2683897511 6.9050528832
2926 7 15 4.0000000000 48.8261547930 36.1638740012 6.1240423066
2927 7 16 -2.0000000000 48.8261547930 36.1638740012 8.4670740365
2928 7 16 -2.0000000000 48.8261547930 40.5819370006 6.9050528832
2929 7 15 4.0000000000 46.9130773965 39.4774212508 6.1240423066
2930 7 16 -2.0000000000 46.9130773965 39.4774212508 8.4670740365
2931 7 16 -2.0000000000 50.7392321895 37.2683897511 6.9050528832
2932 7 15 4.0000000000 45.0000000000 36.1638740012 6.1240423066
2933 7 16 -2.0000000000 45.0000000000 36.1638740012 8.4670740365
2934 7 16 -2.0000000000 52.6523095860 40.5819370006 6.9050528832
2935 7 15 4.0000000000 46.9130773965 37.2683897511 9.2480846132
2936 7 16 -2.0000000000 46.9130773965 37.2683897511 11.5911163431
2937 7 16 -2.0000000000 46.9130773965 41.6864527505 10.0290951898
2938 7 15 4.0000000000 48.8261547930 40.5819370006 9.2480846132
2939 7 16 -2.0000000000 48.8261547930 40.5819370006 11.5911163431
2940 7 16 -2.0000000000 52.6523095860 38.3729055009 10.0290951898
2941 7 15 4.0000000000 50.7392321895 37.2683897511 9.2480846132
2942 7 16 -2.0000000000 50.7392321895 37.2683897511 11.5911163431
2943 7 16 -2.0000000000 50.7392321895 41.6864527505 10.0290951898
2944 7 15 4.0000000000 52.6523095860 40.5819370006 9.2480846132
2945 7 16 -2.0000000000 52.6523095860 40.5819370006 11.5911163431
2946 7 16 -2.0000000000 48.8261547930 38.3729055009 10.0290951898
2947 7 15 4.0000000000 46.9130773965 41.6864527505 3.0000000000
2948 7 16 -2.0000000000 58.3915417755 48.3135472495 5.3430317299
2949 7 16 -2.0000000000 54.5653869825 46.1045157498 3.7810105766
2950 7 15 4.0000000000 48.8261547930 45.0000000000 3.0000000000
2951 7 16 -2.0000000000 56.4784643790 45.0000000000 5.3430317299
2952 7 16 -2.0000000000 52.6523095860 42.7909685003 3.7810105766
2953 7 15 4.0000000000 50.7392321895 41.6864527505 3.0000000000
2954 7 16 -2.0000000000 50.7392321895 41.6864527505 5.3430317299
2955 7 16 -2.0000000000 50.7392321895 46.1045157498 3.7810105766
2956 7 15 4.0000000000 52.6523095860 45.0000000000 3.0000000000
2957 7 16 -2.0000000000 52.6523095860 45.0000000000 5.3430317299
2958 7 16 -2.0000000000 48.8261547930 42.7909685003 3.7810105766
2959 7 15 4.0000000000 54.5653869825 46.1045157498 6.1240423066
2960 7 16 -2.0000000000 54.5653869825 46.1045157498 8.4670740365
2961 7 16 -2.0000000000 50.7392321895 43.8954842502 6.9050528832
2962 7 15 4.0000000000 52.6523095860 42.7909685003 6.1240423066
2963 7 16 -2.0000000000 52.6523095860 42.7909685003 8.4670740365
2964 7 16 -2.0000000000 52.6523095860 47.2090314997 6.9050528832
2965 7 15 4.0000000000 50.7392321895 46.1045157498 6.1240423066
2966 7 16 -2.0000000000 50.7392321895 46.1045157498 8.4670740365
2967 7 16 -2.0000000000 54.5653869825 43.8954842502 6.9050528832
2968 7 15 4.0000000000 48.8261547930 42.7909685003 6.1240423066
2969 7 16 -2.0000000000 48.8261547930 42.7909685003 8.4670740365
2970 7 16 -2.0000000000 56.4784643790 47.2090314997 6.9050528832
2971 7 15 4.0000000000 50.7392321895 43.8954842502 9.2480846132
2972 7 16 -2.0000000000 50.7392321895 43.8954842502 11.5911163431
2973 7 16 -2.0000000000 50.7392321895 48.3135472495 10.0290951898
2974 7 15 4.0000000000 52.6523095860 47.2090314997 9.2480846132
2975 7 16 -2.0000000000 52.6523095860 47.2090314997 11.5911163431
2976 7 16 -2.0000000000 56.4784643790 45.0000000000 10.0290951898
2977 7 15 4.0000000000 54.5653869825 43.8954842502 9.2480846132
2978 7 16 -2.0000000000 54.5653869825 43.8954842502 11.5911163431
2979 7 16 -2.0000000000 54.5653869825 48.3135472495 10.0290951898
2980 7 15 4.0000000000 56.4784643790 47.2090314997 9.2480846132
2981 7 16 -2.0000000000 56.4784643790 47.2090314997 11.5911163431
2982 7 16 -2.0000000000 52.6523095860 45.0000000000 10.0290951898
2983 7 15 4.0000000000 50.7392321895 48.3135472495 3.0000000000
2984 7 16 -2.0000000000 62.2176965685 54.9406417486 5.3430317299
2985 7 16 -2.0000000000 58.3915417755 52.7316102489 3.7810105766
2986 7 15 4.0000000000 52.6523095860 51.6270944991 3.0000000000
2987 7 16 -2.0000000000 60.3046191720 51.6270944991 5.3430317299
2988 7 16 -2.0000000000 56.4784643790 49.4180629994 3.7810105766
2989 7 15 4.0000000000 54.5653869825 48.3135472495 3.0000000000
2990 7 16 -2.0000000000 54.5653869825 48.3135472495 5.3430317299
2991 7 16 -2.0000000000 54.5653869825 52.7316102489 3.7810105766
2992 7 15 4.0000000000 56.4784643790 51.6270944991 3.0000000000
2993 7 16 -2.0000000000 56.4784643790 51.6270944991 5.3430317299
2994 7 16 -2.0000000000 52.6523095860 49.4180629994 3.7810105766
2995 7 15 4.0000000000 58.3915417755 52.7316102489 6.1240423066
2996 7 16 -2.0000000000 58.3915417755 52.7316102489 8.4670740365
2997 7 16 -2.0000000000 54.5653869825 50.5225787492 6.9050528832
2998 7 15 4.0000000000 56.4784643790 49.4180629994 6.1240423066
2999 7 16 -2.0000000000 56.4784643790 49.4180629994 8.4670740365
3000 7 16 -2.0000000000 56.4784643790 53.8361259988 6.9050528832
3001 7 15 4.0000000000 54.5653869825 52.7316102489 6.1240423066
3002 7 16 -2.0000000000 54.5653869825 52.7316102489 8.4670740365
3003 7 16 -2.0000000000 58.3915417755 50.5225787492 6.9050528832
3004 7 15 4.0000000000 52.6523095860 49.4180629994 6.1240423066
3005 7 16 -2.0000000000 52.6523095860 49.4180629994 8.4670740365
3006 7 16 -2.0000000000 60.3046191720 53.8361259988 6.9050528832
3007 7 15 4.0000000000 54.5653869825 50.5225787492 9.2480846132
3008 7 16 -2.0000000000 54.5653869825 50.5225787492 11.5911163431
3009 7 16 -2.0000000000 54.5653869825 54.9406417486 10.0290951898
3010 7 15 4.0000000000 56.4784643790 53.8361259988 9.2480846132
3011 7 16 -2.0000000000 56.4784643790 53.8361259988 11.5911163431
3012 7 16 -2.0000000000 60.3046191720 51.6270944991 10.0290951898
3013 7 15 4.0000000000 58.3915417755 50.5225787492 9.2480846132
3014 7 16 -2.0000000000 58.3915417755 50.5225787492 11.5911163431
3015 7 16 -2.0000000000 58.3915417755 54.9406417486 10.0290951898
3016 7 15 4.0000000000 60.3046191720 53.8361259988 9.2480846132
3017 7 16 -2.0000000000 60.3046191720 53.8361259988 11.5911163431
3018 7 16 -2.0000000000 56.4784643790 51.6270944991 10.0290951898
3019 8 9 0.0000000000 39.9383194106 41.8121565279 17.4301055124
3020 8 3 0.0000000000 40.0635621531 42.2349151185 18.8215697727
3021 8 3 0.0000000000 40.7926513981 43.5808357367 18.9250677655
3022 8 3 0.0000000000 40.0220427449 44.7135790286 18.2700673911
3023 8 3 0.0000000000 38.8112809161 45.1181083465 18.8544442770
3024 8 3 0.0000000000 38.0684049453 46.1613537572 18.3071642154
3025 8 3 0.0000000000 38.5162708881 46.8253895797 17.1661288107
3026 8 13 0.0000000000 37.7396151560 47.8583594634 16.6411744776
3027 8 3 0.0000000000 39.7296702670 46.4515157106 16.5652538266
3028 8 13 0.0000000000 40.1445943324 47.1275266290 15.4137236783
3029 8 3 0.0000000000 40.5035557889 45.4065629648 17.1263917181
3030 8 5 0.0000000000 39.1749514024 42.3728132890 16.9862690845
3031 8 5 0.0000000000 39.6097413822 40.8195104854 17.4272100499
3032 8 5 0.0000000000 40.6545029125 41.4755761144 19.3793553127
3033 8 5 0.0000000000 39.0590795191 42.2937171649 19.2963979918
3034 8 5 0.0000000000 40.9287609440 43.8249059500 20.0009993788
3035 8 5 0.0000000000 41.8135486550 43.4678512000 18.5060185245
3036 8 5 0.0000000000 38.4410758012 44.6245498190 19.7445202330
3037 8 5 0.0000000000 37.1358025921 46.4550179504 18.7722269283
3038 8 5 0.0000000000 38.0155691843 48.3764015061 15.8157141915
3039 8 5 0.0000000000 40.9987124229 46.9050613909 14.9181146380
3040 8 9 0.0000000000 44.0110221233 45.8552175493 19.5958648170
3041 8 3 0.0000000000 42.9069192469 46.6806714315 19.1162977681
3042 8 3 0.0000000000 42.9983118076 46.9795546981 17.6090311963
3043 8 3 0.0000000000 42.9932073638 45.7394970252 16.7140314416
3044 8 3 0.0000000000 41.7863120001 45.0229312465 16.4888473042
3045 8 3 0.0000000000 41.7684814166 43.9377600466 15.6052463116
3046 8 3 0.0000000000 42.9239976571 43.5364494534 14.9376603276
3047 8 13 0.0000000000 42.8815251209 42.4546254287 14.0589896312
3048 8 3 0.0000000000 44.1237827570 44.2267288685 15.1422300911
3049 8 13 0.0000000000 45.2751080908 43.8542675155 14.4447209848
3050 8 3 0.0000000000 44.1744081916 45.3124474511 16.0382585839
3051 8 5 0.0000000000 43.9147000238 44.8984955202 19.1889646654
3052 8 5 0.0000000000 44.9150583026 46.2688608556 19.2726678643
3053 8 5 0.0000000000 41.9463048158 46.1942943042 19.3677017866
3054 8 5 0.0000000000 42.9246517004 47.6457912909 19.6666535199
3055 8 5 0.0000000000 43.8909937668 47.6116344158 17.4413285833
3056 8 5 0.0000000000 42.1434336246 47.6299651649 17.3308257406
3057 8 5 0.0000000000 40.8407080483 43.4135470277 15.4146589482
3058 8 5 0.0000000000 42.0257134969 41.9382179218 13.8919202148
3059 8 5 0.0000000000 45.2875537740 43.0807497841 13.7911163431
3060 8 9 0.0000000000 46.7647194655 41.7322833454 17.4521071249
3061 8 3 0.0000000000 47.2391525980 43.0586542976 17.0697578002
3062 8 3 0.0000000000 46.3655344228 44.1429311885 17.7111249039
3063 8 3 0.0000000000 46.5205809093 45.4940194505 17.0179458023
3064 8 3 0.0000000000 45.4717595111 46.0142051487 16.2103526230
3065 8 3 0.0000000000 45.6507345441 47.2191645001 15.5210038804
3066 8 3 0.0000000000 46.8200198512 47.9615070952 15.6705120679
3067 8 13 0.0000000000 46.9705047314 49.1754130394 15.0014834220
3068 8 3 0.0000000000 47.8431886698 47.5001440562 16.4995085144
3069 8 13 0.0000000000 48.9748967112 48.3065291252 16.6557052924
3070 8 3 0.0000000000 47.7172388847 46.2543503989 17.1600364394
3071 8 5 0.0000000000 45.8662380108 41.5497816618 16.9478965311
3072 8 5 0.0000000000 47.4524414224 41.0324227632 17.0902767444
3073 8 5 0.0000000000 48.2801564461 43.1762423784 17.4284594860
3074 8 5 0.0000000000 47.2393260465 43.1521164278 15.9619943513
3075 8 5 0.0000000000 45.3122846444 43.8012152991 17.6937053271
3076 8 5 0.0000000000 46.6202242658 44.2323583657 18.7869471123
3077 8 5 0.0000000000 44.8598565061 47.5972830839 14.8834682491
3078 8 5 0.0000000000 46.2457355238 49.5414985779 14.3951131742
3079 8 5 0.0000000000 49.7391515221 48.0779988966 17.2783332869
3080 8 9 0.0000000000 50.3852672443 42.8076925000 15.7820293455
3081 8 3 0.0000000000 51.0543258516 44.0532749289 15.4179731693
3082 8 3 0.0000000000 50.2757602807 45.2750614307 15.9339027905
3083 8 3 0.0000000000 50.0640904193 45.3167464379 17.4424573974
3084 8 3 0.0000000000 48.8398592086 45.7721308130 18.0044177110
3085 8 3 0.0000000000 48.7004021225 45.8515416306 19.3984758011
3086 8 3 0.0000000000 49.7530781334 45.4922089785 20.2453631604
3087 8 13 0.0000000000 49.5938330985 45.5606704097 21.6286221557
3088 8 3 0.0000000000 50.9739011075 45.0759831297 19.6982787850
3089 8 13 0.0000000000 52.0495366720 44.7325607376 20.5169667597
3090 8 3 0.0000000000 51.1294847828 45.0086337901 18.3112550509
3091 8 5 0.0000000000 50.6044092621 42.5984046223 16.7827744360
3092 8 5 0.0000000000 50.8190913640 42.0374030669 15.2236401468
3093 8 5 0.0000000000 51.1041701551 44.1241461557 14.3088954925
3094 8 5 0.0000000000 52.1029034362 44.0537882085 15.7850331528
3095 8 5 0.0000000000 50.8209682892 46.1950889556 15.6336530138
3096 8 5 0.0000000000 49.3031946078 45.2815983558 15.3986529707
3097 8 5 0.0000000000 47.7716772890 46.2091752064 19.8276754667
3098 8 5 0.0000000000 48.7220139573 45.8614176786 22.0486538931
3099 8 5 0.0000000000 51.9898379204 44.7668802253 21.5275660270
3100 8 5 0.0000000000 52.0945439655 44.7180589055 17.9210930898

Bonds

1 11 438 439
2 11 436 437
3 6 434 435
4 11 434 436
5 11 433 434
6 11 432 433
7 11 431 432
8 11 431 437
9 8 430 431
10 8 429 430
11 11 429 438
12 11 428 429
13 11 427 428
14 11 426 427
15 11 426 439
16 5 425 426
17 11 417 418
18 11 415 416
19 16 413 414
20 4 413 415
21 7 413 425
22 16 411 412
23 7 411 425
24 4 410 411
25 11 410 415
26 11 409 410
27 11 408 409
28 11 407 408
29 11 407 416
30 8 406 407
31 8 405 406
32 11 405 417
33 11 404 405
34 11 403 404
35 11 402 403
36 11 402 418
37 16 400 401
38 4 400 402
39 4 399 418
40 16 398 399
41 9 381 382
42 11 381 383
43 9 379 380
44 11 379 381
45 11 378 379
46 11 377 378
47 11 376 377
48 11 376 383
49 2 375 376
50 1 374 375
51 3 373 374
52 16 371 372
53 7 371 373
54 4 370 371
55 11 370 384
56 11 369 370
57 7 368 399
58 7 368 400
59 5 367 368
60 11 367 369
61 11 366 367
62 11 365 366
63 11 365 384
64 5 364 365
65 11 356 357
66 11 354 355
67 16 352 353
68 4 352 354
69 7 352 364
70 16 350 351
71 7 350 364
72 4 349 350
73 11 349 354
74 11 348 349
75 11 347 348
76 11 346 347
77 11 346 355
78 8 345 346
79 8 344 345
80 11 344 356
81 11 343 344
82 11 342 343
83 11 341 342
84 11 341 357
85 16 339 340
86 4 339 341
87 4 338 357
88 16 337 338
89 11 327 328
90 11 325 326
91 7 324 338
92 7 324 339
93 5 323 324
94 11 323 325
95 11 322 323
96 11 321 322
97 11 320 321
98 11 320 326
99 8 319 320
100 8 318 319
101 11 318 327
102 11 317 318
103 11 316 317
104 11 315 316
105 11 315 328
106 5 314 315
107 11 306 307
108 11 304 305
109 16 302 303
110 4 302 304
111 7 302 314
112 16 300 301
113 7 300 314
114 4 299 300
115 11 299 304
116 11 298 299
117 11 297 298
118 11 296 297
119 11 296 305
120 8 295 296
121 8 294 295
122 11 294 306
123 11 293 294
124 11 292 293
125 11 291 292
126 11 291 307
127 16 289 290
128 4 289 291
129 4 288 307
130 16 287 288
131 11 277 278
132 11 275 276
133 7 274 288
134 7 274 289
135 5 273 274
136 11 273 275
137 11 272 273
138 11 271 272
139 11 270 271
140 11 270 276
141 8 269 270
142 8 268 269
143 11 268 277
144 11 267 268
145 11 266 267
146 11 265 266
147 11 265 278
148 5 264 265
149 11 256 257
150 11 254 255
151 16 252 253
152 4 252 254
153 7 252 264
154 16 250 251
155 7 250 264
156 4 249 250
157 11 249 254
158 11 248 249
159 11 247 248
160 11 246 247
161 11 246 255
162 8 245 246
163 8 244 245
164 11 244 256
165 11 243 244
166 11 242 243
167 11 241 242
168 11 241 257
169 16 239 240
170 4 239 241
171 4 238 257
172 16 237 238
173 11 227 228
174 11 225 226
175 7 224 238
176 7 224 239
177 5 223 224
178 11 223 225
179 11 222 223
180 11 221 222
181 11 220 221
182 11 220 226
183 8 219 220
184 8 218 219
185 11 218 227
186 11 217 218
187 11 216 217
188 11 215 216
189 11 215 228
190 5 214 215
191 11 206 207
192 11 204 205
193 16 202 203
194 4 202 204
195 7 202 214
196 16 200 201
197 7 200 214
198 4 199 200
199 11 199 204
200 11 198 199
201 11 197 198
202 11 196 197
203 11 196 205
204 8 195 196
205 8 194 195
206 11 194 206
207 11 193 194
208 11 192 193
209 11 191 192
210 11 191 207
211 16 189 190
212 4 189 191
213 4 188 207
214 16 187 188
215 11 177 178
216 11 175 176
217 7 174 188
218 7 174 189
219 5 173 174
220 11 173 175
221 11 172 173
222 11 171 172
223 11 170 171
224 11 170 176
225 8 169 170
226 8 168 169
227 11 168 177
228 11 167 168
229 11 166 167
230 11 165 166
231 11 165 178
232 5 164 165
233 11 156 157
234 11 154 155
235 16 152 153
236 4 152 154
237 7 152 164
238 16 150 151
239 7 150 164
240 4 149 150
241 11 149 154
242 11 148 149
243 11 147 148
244 11 146 147
245 11 146 155
246 8 145 146
247 8 144 145
248 11 144 156
249 11 143 144
250 11 142 143
251 11 141 142
252 11 141 157
253 16 139 140
254 4 139 141
255 4 138 157
256 16 137 138
257 11 127 128
258 11 125 126
259 7 124 138
260 7 124 139
261 5 123 124
262 11 123 125
263 11 122 123
264 11 121 122
265 11 120 121
266 11 120 126
267 8 119 120
268 8 118 119
269 11 118 127
270 11 117 118
271 11 116 117
272 11 115 116
273 11 115 128
274 5 114 115
275 11 106 107
276 11 104 105
277 16 102 103
278 4 102 104
279 7 102 114
280 16 100 101
281 7 100 114
282 4 99 100
283 11 99 104
284 11 98 99
285 11 97 98
286 11 96 97
287 11 96 105
288 8 95 96
289 8 94 95
290 11 94 106
291 11 93 94
292 11 92 93
293 11 91 92
294 11 91 107
295 16 89 90
296 4 89 91
297 4 88 107
298 16 87 88
299 9 70 71
300 11 70 72
301 9 68 69
302 11 68 70
303 11 67 68
304 11 66 67
305 11 65 66
306 11 65 72
307 2 64 65
308 1 63 64
309 3 62 63
310 16 60 61
311 7 60 62
312 4 59 60
313 11 59 73
314 11 58 59
315 7 57 88
316 7 57 89
317 5 56 57
318 11 56 58
319 11 55 56
320 11 54 55
321 11 54 73
322 5 53 54
323 11 45 46
324 11 43 44
325 16 41 42
326 4 41 43
327 7 41 53
328 16 39 40
329 7 39 53
330 4 38 39
331 11 38 43
332 11 37 38
333 11 36 37
334 11 35 36
335 11 35 44
336 8 34 35
337 8 33 34
338 11 33 45
339 11 32 33
340 11 31 32
341 11 30 31
342 11 30 46
343 16 28 29
344 4 28 30
345 4 27 46
346 16 26 27
347 11 14 15
348 11 12 13
349 7 11 27
350 7 11 28
351 5 10 11
352 11 10 12
353 11 9 10
354 11 8 9
355 11 7 8
356 11 7 13
357 8 6 7
358 8 5 6
359 11 5 14
360 11 4 5
361 11 3 4
362 11 2 3
363 11 2 15
364 6 1 2
365 11 887 888
366 11 885 886
367 6 883 884
368 11 883 885
369 11 882 883
370 11 881 882
371 11 880 881
372 11 880 886
373 8 879 880
374 8 878 879
375 11 878 887
376 11 877 878
377 11 876 877
378 11 875 876
379 11 875 888
380 5 874 875
381 11 866 867
382 11 864 865
383 16 862 863
384 4 862 864
385 7 862 874
386 16 860 861
387 7 860 874
388 4 859 860
389 11 859 864
390 11 858 859
391 11 857 858
392 11 856 857
393 11 856 865
394 8 855 856
395 8 854 855
396 11 854 866
397 11 853 854
398 11 852 853
399 11 851 852
400 11 851 867
401 16 849 850
402 4 849 851
403 4 848 867
404 16 847 848
405 9 830 831
406 11 830 832
407 9 828 829
408 11 828 830
409 11 827 828
410 11 826 827
411 11 825 826
412 11 825 832
413 2 824 825
414 1 823 824
415 3 822 823
416 16 820 821
417 7 820 822
418 4 819 820
419 11 819 833
420 11 818 819
421 7 817 848
422 7 817 849
423 5 816 817
424 11 816 818
425 11 815 816
426 11 814 815
427 11 814 833
428 5 813 814
429 11 805 806
430 11 803 804
431 16 801 802
432 4 801 803
433 7 801 813
434 16 799 800
435 7 799 813
436 4 798 799
437 11 798 803
438 11 797 798
439 11 796 797
440 11 795 796
441 11 795 804
442 8 794 795
443 8 793 794
444 11 793 805
445 11 792 793
446 11 791 792
447 11 790 791
448 11 790 806
449 16 788 789
450 4 788 790
451 4 787 806
452 16 786 787
453 11 776 777
454 11 774 775
455 7 773 787
456 7 773 788
457 5 772 773
458 11 772 774
459 11 771 772
460 11 770 771
461 11 769 770
462 11 769 775
463 8 768 769
464 8 767 768
465 11 767 776
466 11 766 767
467 11 765 766
468 11 764 765
469 11 764 777
470 5 763 764
471 11 755 756
472 11 753 754
473 16 751 752
474 4 751 753
475 7 751 763
476 16 749 750
477 7 749 763
478 4 748 749
479 11 748 753
480 11 747 748
481 11 746 747
482 11 745 746
483 11 745 754
484 8 744 745
485 8 743 744
486 11 743 755
487 11 742 743
488 11 741 742
489 11 740 741
490 11 740 756
491 16 738 739
492 4 738 740
493 4 737 756
494 16 736 737
495 11 726 727
496 11 724 725
497 7 723 737
498 7 723 738
499 5 722 723
500 11 722 724
501 11 721 722
502 11 720 721
503 11 719 720
504 11 719 725
505 8 718 719
506 8 717 718
507 11 717 726
508 11 716 717
509 11 715 716
510 11 714 715
511 11 714 727
512 5 713 714
513 11 705 706
514 11 703 704
515 16 701 702
516 4 701 703
517 7 701 713
518 16 699 700
519 7 699 713
520 4 698 699
521 11 698 703
522 11 697 698
523 11 696 697
524 11 695 696
525 11 695 704
526 8 694 695
527 8 693 694
528 11 693 705
529 11 692 693
530 11 691 692
531 11 690 691
532 11 690 706
533 16 688 689
534 4 688 690
535 4 687 706
536 16 686 687
537 11 676 677
538 11 674 675
539 7 673 687
540 7 673 688
541 5 672 673
542 11 672 674
543 11 671 672
544 11 670 671
545 11 669 670
546 11 669 675
547 8 668 669
548 8 667 668
549 11 667 676
550 11 666 667
551 11 665 666
552 11 664 665
553 11 664 677
554 5 663 664
555 11 655 656
556 11 653 654
557 16 651 652
558 4 651 653
559 7 651 663
560 16 649 650
561 7 649 663
562 4 648 649
563 11 648 653
564 11 647 648
565 11 646 647
566 11 645 646
567 11 645 654
568 8 644 645
569 8 643 644
570 11 643 655
571 11 642 643
572 11 641 642
573 11 640 641
574 11 640 656
575 16 638 639
576 4 638 640
577 4 637 656
578 16 636 637
579 11 626 627
580 11 624 625
581 7 623 637
582 7 623 638
583 5 622 623
584 11 622 624
585 11 621 622
586 11 620 621
587 11 619 620
588 11 619 625
589 8 618 619
590 8 617 618
591 11 617 626
592 11 616 617
593 11 615 616
594 11 614 615
595 11 614 627
596 5 613 614
597 11 605 606
598 11 603 604
599 16 601 602
600 4 601 603
601 7 601 613
602 16 599 600
603 7 599 613
604 4 598 599
605 11 598 603
606 11 597 598
607 11 596 597
608 11 595 596
609 11 595 604
610 8 594 595
611 8 593 594
612 11 593 605
613 11 592 593
614 11 591 592
615 11 590 591
616 11 590 606
617 16 588 589
618 4 588 590
619 4 587 606
620 16 586 587
621 11 576 577
622 11 574 575
623 7 573 587
624 7 573 588
625 5 572 573
626 11 572 574
627 11 571 572
628 11 570 571
629 11 569 570
630 11 569 575
631 8 568 569
632 8 567 568
633 11 567 576
634 11 566 567
635 11 565 566
636 11 564 565
637 11 564 577
638 5 563 564
639 11 555 556
640 11 553 554
641 16 551 552
642 4 551 553
643 7 551 563
644 16 549 550
645 7 549 563
646 4 548 549
647 11 548 553
648 11 547 548
649 11 546 547
650 11 545 546
651 11 545 554
652 8 544 545
653 8 543 544
654 11 543 555
655 11 542 543
656 11 541 542
657 11 540 541
658 11 540 556
659 16 538 539
660 4 538 540
661 4 537 556
662 16 536 537
663 9 519 520
664 11 519 521
665 9 517 518
666 11 517 519
667 11 516 517
668 11 515 516
669 11 514 515
670 11 514 521
671 2 513 514
672 1 512 513
673 3 511 512
674 16 509 510
675 7 509 511
676 4 508 509
677 11 508 522
678 11 507 508
679 7 506 537
680 7 506 538
681 5 505 506
682 11 505 507
683 11 504 505
684 11 503 504
685 11 503 522
686 5 502 503
687 11 494 495
688 11 492 493
689 16 490 491
690 4 490 492
691 7 490 502
692 16 488 489
693 7 488 502
694 4 487 488
695 11 487 492
696 11 486 487
697 11 485 486
698 11 484 485
699 11 484 493
700 8 483 484
701 8 482 483
702 11 482 494
703 11 481 482
704 11 480 481
705 11 479 480
706 11 479 495
707 16 477 478
708 4 477 479
709 4 476 495
710 16 475 476
711 11 463 464
712 11 461 462
713 7 460 476
714 7 460 477
715 5 459 460
716 11 459 461
717 11 458 459
718 11 457 458
719 11 456 457
720 11 456 462
721 8 455 456
722 8 454 455
723 11 454 463
724 11 453 454
725 11 452 453
726 11 451 452
727 11 451 464
728 6 450 451
729 11 1336 1337
730 11 1334 1335
731 6 1332 1333
732 11 1332 1334
733 11 1331 1332
734 11 1330 1331
735 11 1329 1330
736 11 1329 1335
737 8 1328 1329
738 8 1327 1328
739 11 1327 1336
740 11 1326 1327
741 11 1325 1326
742 11 1324 1325
743 11 1324 1337
744 5 1323 1324
745 11 1315 1316
746 11 1313 1314
747 16 1311 1312
748 4 1311 1313
749 7 1311 1323
750 16 1309 1310
751 7 1309 1323
752 4 1308 1309
753 11 1308 1313
754 11 1307 1308
755 11 1306 1307
756 11 1305 1306
757 11 1305 1314
758 8 1304 1305
759 8 1303 1304
760 11 1303 1315
761 11 1302 1303
762 11 1301 1302
763 11 1300 1301
764 11 1300 1316
765 16 1298 1299
766 4 1298 1300
767 4 1297 1316
768 16 1296 1297
769 9 1279 1280
770 11 1279 1281
771 9 1277 1278
772 11 1277 1279
773 11 1276 1277
774 11 1275 1276
775 11 1274 1275
776 11 1274 1281
777 2 1273 1274
778 1 1272 1273
779 3 1271 1272
780 16 1269 1270
781 7 1269 1271
782 4 1268 1269
783 11 1268 1282
784 11 1267 1268
785 7 1266 1297
786 7 1266 1298
787 5 1265 1266
788 11 1265 1267
789 11 1264 1265
790 11 1263 1264
791 11 1263 1282
792 5 1262 1263
793 11 1254 1255
794 11 1252 1253
795 16 1250 1251
796 4 1250 1252
797 7 1250 1262
798 16 1248 1249
799 7 1248 1262
800 4 1247 1248
801 11 1247 1252
802 11 1246 1247
803 11 1245 1246
804 11 1244 1245
805 11 1244 1253
806 8 1243 1244
807 8 1242 1243
808 11 1242 1254
809 11 1241 1242
810 11 1240 1241
811 11 1239 1240
812 11 1239 1255
813 16 1237 1238
814 4 1237 1239
815 4 1236 1255
816 16 1235 1236
817 11 1225 1226
818 11 1223 1224
819 7 1222 1236
820 7 1222 1237
821 5 1221 1222
822 11 1221 1223
823 11 1220 1221
824 11 1219 1220
825 11 1218 1219
826 11 1218 1224
827 8 1217 1218
828 8 1216 1217
829 11 1216 1225
830 11 1215 1216
831 11 1214 1215
832 11 1213 1214
833 11 1213 1226
834 5 1212 1213
835 11 1204 1205
836 11 1202 1203
837 16 1200 1201
838 4 1200 1202
839 7 1200 1212
840 16 1198 1199
841 7 1198 1212
842 4 1197 1198
843 11 1197 1202
844 11 1196 1197
845 11 1195 1196
846 11 1194 1195
847 11 1194 1203
848 8 1193 1194
849 8 1192 1193
850 11 1192 1204
851 11 1191 1192
852 11 1190 1191
853 11 1189 1190
854 11 1189 1205
855 16 1187 1188
856 4 1187 1189
857 4 1186 1205
858 16 1185 1186
859 11 1175 1176
860 11 1173 1174
861 7 1172 1186
862 7 1172 1187
863 5 1171 1172
864 11 1171 1173
865 11 1170 1171
866 11 1169 1170
867 11 1168 1169
868 11 1168 1174
869 8 1167 1168
870 8 1166 1167
871 11 1166 1175
872 11 1165 1166
873 11 1164 1165
874 11 1163 1164
875 11 1163 1176
876 5 1162 1163
877 11 1154 1155
878 11 1152 1153
879 16 1150 1151
880 4 1150 1152
881 7 1150 1162
882 16 1148 1149
883 7 1148 1162
884 4 1147 1148
885 11 1147 1152
886 11 1146 1147
887 11 1145 1146
888 11 1144 1145
889 11 1144 1153
890 8 1143 1144
891 8 1142 1143
892 11 1142 1154
893 11 1141 1142
894 11 1140 1141
895 11 1139 1140
896 11 1139 1155
897 16 1137 1138
898 4 1137 1139
899 4 1136 1155
900 16 1135 1136
901 11 1125 1126
902 11 1123 1124
903 7 1122 1136
904 7 1122 1137
905 5 1121 1122
906 11 1121 1123
907 11 1120 1121
908 11 1119 1120
909 11 1118 1119
910 11 1118 1124
911 8 1117 1118
912 8 1116 1117
913 11 1116 1125
914 11 1115 1116
915 11 1114 1115
916 11 1113 1114
917 11 1113 1126
918 5 1112 1113
919 11 1104 1105
920 11 1102 1103
921 16 1100 1101
922 4 1100 1102
923 7 1100 1112
924 16 1098 1099
925 7 1098 1112
926 4 1097 1098
927 11 1097 1102
928 11 1096 1097
929 11 1095 1096
930 11 1094 1095
931 11 1094 1103
932 8 1093 1094
933 8 1092 1093
934 11 1092 1104
935 11 1091 1092
936 11 1090 1091
937 11 1089 1090
938 11 1089 1105
939 16 1087 1088
940 4 1087 1089
941 4 1086 1105
942 16 1085 1086
943 11 1075 1076
944 11 1073 1074
945 7 1072 1086
946 7 1072 1087
947 5 1071 1072
948 11 1071 1073
949 11 1070 1071
950 11 1069 1070
951 11 1068 1069
952 11 1068 1074
953 8 1067 1068
954 8 1066 1067
955 11 1066 1075
956 11 1065 1066
957 11 1064 1065
958 11 1063 1064
959 11 1063 1076
960 5 1062 1063
961 11 1054 1055
962 11 1052 1053
963 16 1050 1051
964 4 1050 1052
965 7 1050 1062
966 16 1048 1049
967 7 1048 1062
968 4 1047 1048
969 11 1047 1052
970 11 1046 1047
971 11 1045 1046
972 11 1044 1045
973 11 1044 1053
974 8 1043 1044
975 8 1042 1043
976 11 1042 1054
977 11 1041 1042
978 11 1040 1041
979 11 1039 1040
980 11 1039 1055
981 16 1037 1038
982 4 1037 1039
983 4 1036 1055
984 16 1035 1036
985 11 1025 1026
986 11 1023 1024
987 7 1022 1036
988 7 1022 1037
989 5 1021 1022
990 11 1021 1023
991 11 1020 1021
992 11 1019 1020
993 11 1018 1019
994 11 1018 1024
995 8 1017 1018
996 8 1016 1017
997 11 1016 1025
998 11 1015 1016
999 11 1014 1015
1000 11 1013 1014
1001 11 1013 1026
1002 5 1012 1013
1003 11 1004 1005
1004 11 1002 1003
1005 16 1000 1001
1006 4 1000 1002
1007 7 1000 1012
1008 16 998 999
1009 7 998 1012
1010 4 997 998
1011 11 997 1002
1012 11 996 997
1013 11 995 996
1014 11 994 995
1015 11 994 1003
1016 8 993 994
1017 8 992 993
1018 11 992 1004
1019 11 991 992
1020 11 990 991
1021 11 989 990
1022 11 989 1005
1023 16 987 988
1024 4 987 989
1025 4 986 1005
1026 16 985 986
1027 9 968 969
1028 11 968 970
1029 9 966 967
1030 11 966 968
1031 11 965 966
1032 11 964 965
1033 11 963 964
1034 11 963 970
1035 2 962 963
1036 1 961 962
1037 3 960 961
1038 16 958 959
1039 7 958 960
1040 4 957 958
1041 11 957 971
1042 11 956 957
1043 7 955 986
1044 7 955 987
1045 5 954 955
1046 11 954 956
1047 11 953 954
1048 11 952 953
1049 11 952 971
1050 5 951 952
1051 11 943 944
1052 11 941 942
1053 16 939 940
1054 4 939 941
1055 7 939 951
1056 16 937 938
1057 7 937 951
1058 4 936 937
1059 11 936 941
1060 11 935 936
1061 11 934 935
1062 11 933 934
1063 11 933 942
1064 8 932 933
1065 8 931 932
1066 11 931 943
1067 11 930 931
1068 11 929 930
1069 11 928 929
1070 11 928 944
1071 16 926 927
1072 4 926 928
1073 4 925 944
1074 16 924 925
1075 11 912 913
1076 11 910 911
1077 7 909 925
1078 7 909 926
1079 5 908 909
1080 11 908 910
1081 11 907 908
1082 11 906 907
1083 11 905 906
1084 11 905 911
1085 8 904 905
1086 8 903 904
1087 11 903 912
1088 11 902 903
1089 11 901 902
1090 11 900 901
1091 11 900 913
1092 6 899 900
1093 11 1785 1786
1094 11 1783 1784
1095 6 1781 1782
1096 11 1781 1783
1097 11 1780 1781
1098 11 1779 1780
1099 11 1778 1779
1100 11 1778 1784
1101 8 1777 1778
1102 8 1776 1777
1103 11 1776 1785
1104 11 1775 1776
1105 11 1774 1775
1106 11 1773 1774
1107 11 1773 1786
1108 5 1772 1773
1109 11 1764 1765
1110 11 1762 1763
1111 16 1760 1761
1112 4 1760 1762
1113 7 1760 1772
1114 16 1758 1759
1115 7 1758 1772
1116 4 1757 1758
1117 11 1757 1762
1118 11 1756 1757
1119 11 1755 1756
1120 11 1754 1755
1121 11 1754 1763
1122 8 1753 1754
1123 8 1752 1753
1124 11 1752 1764
1125 11 1751 1752
1126 11 1750 1751
1127 11 1749 1750
1128 11 1749 1765
1129 16 1747 1748
1130 4 1747 1749
1131 4 1746 1765
1132 16 1745 1746
1133 9 1728 1729
1134 11 1728 1730
1135 9 1726 1727
1136 11 1726 1728
1137 11 1725 1726
1138 11 1724 1725
1139 11 1723 1724
1140 11 1723 1730
1141 2 1722 1723
1142 1 1721 1722
1143 3 1720 1721
1144 16 1718 1719
1145 7 1718 1720
1146 4 1717 1718
1147 11 1717 1731
1148 11 1716 1717
1149 7 1715 1746
1150 7 1715 1747
1151 5 1714 1715
1152 11 1714 1716
1153 11 1713 1714
1154 11 1712 1713
1155 11 1712 1731
1156 5 1711 1712
1157 11 1703 1704
1158 11 1701 1702
1159 16 1699 1700
1160 4 1699 1701
1161 7 1699 1711
1162 16 1697 1698
1163 7 1697 1711
1164 4 1696 1697
1165 11 1696 1701
1166 11 1695 1696
1167 11 1694 1695
1168 11 1693 1694
1169 11 1693 1702
1170 8 1692 1693
1171 8 1691 1692
1172 11 1691 1703
1173 11 1690 1691
1174 11 1689 1690
1175 11 1688 1689
1176 11 1688 1704
1177 16 1686 1687
1178 4 1686 1688
1179 4 1685 1704
1180 16 1684 1685
1181 11 1674 1675
1182 11 1672 1673
1183 7 1671 1685
1184 7 1671 1686
1185 5 1670 1671
1186 11 1670 1672
1187 11 1669 1670
1188 11 1668 1669
1189 11 1667 1668
1190 11 1667 1673
1191 8 1666 1667
1192 8 1665 1666
1193 11 1665 1674
1194 11 1664 1665
1195 11 1663 1664
1196 11 1662 1663
1197 11 1662 1675
1198 5 1661 1662
1199 11 1653 1654
1200 11 1651 1652
1201 16 1649 1650
1202 4 1649 1651
1203 7 1649 1661
1204 16 1647 1648
1205 7 1647 1661
1206 4 1646 1647
1207 11 1646 1651
1208 11 1645 1646
1209 11 1644 1645
1210 11 1643 1644
1211 11 1643 1652
1212 8 1642 1643
1213 8 1641 1642
1214 11 1641 1653
1215 11 1640 1641
1216 11 1639 1640
1217 11 1638 1639
1218 11 1638 1654
1219 16 1636 1637
1220 4 1636 1638
1221 4 1635 1654
1222 16 1634 1635
1223 11 1624 1625
1224 11 1622 1623
1225 7 1621 1635
1226 7 1621 1636
1227 5 1620 1621
1228 11 1620 1622
1229 11 1619 1620
1230 11 1618 1619
1231 11 1617 1618
1232 11 1617 1623
1233 8 1616 1617
1234 8 1615 1616
1235 11 1615 1624
1236 11 1614 1615
1237 11 1613 1614
1238 11 1612 1613
1239 11 1612 1625
1240 5 1611 1612
1241 11 1603 1604
1242 11 1601 1602
1243 16 1599 1600
1244 4 1599 1601
1245 7 1599 1611
1246 16 1597 1598
1247 7 1597 1611
1248 4 1596 1597
1249 11 1596 1601
1250 11 1595 1596
1251 11 1594 1595
1252 11 1593 1594
1253 11 1593 1602
1254 8 1592 1593
1255 8 1591 1592
1256 11 1591 1603
1257 11 1590 1591
1258 11 1589 1590
1259 11 1588 1589
1260 11 1588 1604
1261 16 1586 1587
1262 4 1586 1588
1263 4 1585 1604
1264 16 1584 1585
1265 11 1574 1575
1266 11 1572 1573
1267 7 1571 1585
1268 7 1571 1586
1269 5 1570 1571
1270 11 1570 1572
1271 11 1569 1570
1272 11 1568 1569
1273 11 1567 1568
1274 11 1567 1573
1275 8 1566 1567
1276 8 1565 1566
1277 11 1565 1574
1278 11 1564 1565
1279 11 1563 1564
1280 11 1562 1563
1281 11 1562 1575
1282 5 1561 1562
1283 11 1553 1554
1284 11 1551 1552
1285 16 1549 1550
1286 4 1549 1551
1287 7 1549 1561
1288 16 1547 1548
1289 7 1547 1561
1290 4 1546 1547
1291 11 1546 1551
1292 11 1545 1546
1293 11 1544 1545
1294 11 1543 1544
1295 11 1543 1552
1296 8 1542 1543
1297 8 1541 1542
1298 11 1541 1553
1299 11 1540 1541
1300 11 1539 1540
1301 11 1538 1539
1302 11 1538 1554
1303 16 1536 1537
1304 4 1536 1538
1305 4 1535 1554
1306 16 1534 1535
1307 11 1524 1525
1308 11 1522 1523
1309 7 1521 1535
1310 7 1521 1536
1311 5 1520 1521
1312 11 1520 1522
1313 11 1519 1520
1314 11 1518 1519
1315 11 1517 1518
1316 11 1517 1523
1317 8 1516 1517
1318 8 1515 1516
1319 11 1515 1524
1320 11 1514 1515
1321 11 1513 1514
1322 11 1512 1513
1323 11 1512 1525
1324 5 1511 1512
1325 11 1503 1504
1326 11 1501 1502
1327 16 1499 1500
1328 4 1499 1501
1329 7 1499 1511
1330 16 1497 1498
1331 7 1497 1511
1332 4 1496 1497
1333 11 1496 1501
1334 11 1495 1496
1335 11 1494 1495
1336 11 1493 1494
1337 11 1493 1502
1338 8 1492 1493
1339 8 1491 1492
1340 11 1491 1503
1341 11 1490 1491
1342 11 1489 1490
1343 11 1488 1489
1344 11 1488 1504
1345 16 1486 1487
1346 4 1486 1488
1347 4 1485 1504
1348 16 1484 1485
1349 11 1474 1475
1350 11 1472 1473
1351 7 1471 1485
1352 7 1471 1486
1353 5 1470 1471
1354 11 1470 1472
1355 11 1469 1470
1356 11 1468 1469
1357 11 1467 1468
1358 11 1467 1473
1359 8 1466 1467
1360 8 1465 1466
1361 11 1465 1474
1362 11 1464 1465
1363 11 1463 1464
1364 11 1462 1463
1365 11 1462 1475
1366 5 1461 1462
1367 11 1453 1454
1368 11 1451 1452
1369 16 1449 1450
1370 4 1449 1451
1371 7 1449 1461
1372 16 1447 1448
1373 7 1447 1461
1374 4 1446 1447
1375 11 1446 1451
1376 11 1445 1446
1377 11 1444 1445
1378 11 1443 1444
1379 11 1443 1452
1380 8 1442 1443
1381 8 1441 1442
1382 11 1441 1453
1383 11 1440 1441
1384 11 1439 1440
1385 11 1438 1439
1386 11 1438 1454
1387 16 1436 1437
1388 4 1436 1438
1389 4 1435 1454
1390 16 1434 1435
1391 9 1417 1418
1392 11 1417 1419
1393 9 1415 1416
1394 11 1415 1417
1395 11 1414 1415
1396 11 1413 1414
1397 11 1412 1413
1398 11 1412 1419
1399 2 1411 1412
1400 1 1410 1411
1401 3 1409 1410
1402 16 1407 1408
1403 7 1407 1409
1404 4 1406 1407
1405 11 1406 1420
1406 11 1405 1406
1407 7 1404 1435
1408 7 1404 1436
1409 5 1403 1404
1410 11 1403 1405
1411 11 1402 1403
1412 11 1401 1402
1413 11 1401 1420
1414 5 1400 1401
1415 11 1392 1393
1416 11 1390 1391
1417 16 1388 1389
1418 4 1388 1390
1419 7 1388 1400
1420 16 1386 1387
1421 7 1386 1400
1422 4 1385 1386
1423 11 1385 1390
1424 11 1384 1385
1425 11 1383 1384
1426 11 1382 1383
1427 11 1382 1391
1428 8 1381 1382
1429 8 1380 1381
1430 11 1380 1392
1431 11 1379 1380
1432 11 1378 1379
1433 11 1377 1378
1434 11 1377 1393
1435 16 1375 1376
1436 4 1375 1377
1437 4 1374 1393
1438 16 1373 1374
1439 11 1361 1362
1440 11 1359 1360
1441 7 1358 1374
1442 7 1358 1375
1443 5 1357 1358
1444 11 1357 1359
1445 11 1356 1357
1446 11 1355 1356
1447 11 1354 1355
1448 11 1354 1360
1449 8 1353 1354
1450 8 1352 1353
1451 11 1352 1361
1452 11 1351 1352
1453 11 1350 1351
1454 11 1349 1350
1455 11 1349 1362
1456 6 1348 1349
1457 11 2234 2235
1458 11 2232 2233
1459 6 2230 2231
1460 11 2230 2232
1461 11 2229 2230
1462 11 2228 2229
1463 11 2227 2228
1464 11 2227 2233
1465 8 2226 2227
1466 8 2225 2226
1467 11 2225 2234
1468 11 2224 2225
1469 11 2223 2224
1470 11 2222 2223
1471 11 2222 2235
1472 5 2221 2222
1473 11 2213 2214
1474 11 2211 2212
1475 16 2209 2210
1476 4 2209 2211
1477 7 2209 2221
1478 16 2207 2208
1479 7 2207 2221
1480 4 2206 2207
1481 11 2206 2211
1482 11 2205 2206
1483 11 2204 2205
1484 11 2203 2204
1485 11 2203 2212
1486 8 2202 2203
1487 8 2201 2202
1488 11 2201 2213
1489 11 2200 2201
1490 11 2199 2200
1491 11 2198 2199
1492 11 2198 2214
1493 16 2196 2197
1494 4 2196 2198
1495 4 2195 2214
1496 16 2194 2195
1497 9 2177 2178
1498 11 2177 2179
1499 9 2175 2176
1500 11 2175 2177
1501 11 2174 2175
1502 11 2173 2174
1503 11 2172 2173
1504 11 2172 2179
1505 2 2171 2172
1506 1 2170 2171
1507 3 2169 2170
1508 16 2167 2168
1509 7 2167 2169
1510 4 2166 2167
1511 11 2166 2180
1512 11 2165 2166
1513 7 2164 2195
1514 7 2164 2196
1515 5 2163 2164
1516 11 2163 2165
1517 11 2162 2163
1518 11 2161 2162
1519 11 2161 2180
1520 5 2160 2161
1521 11 2152 2153
1522 11 2150 2151
1523 16 2148 2149
1524 4 2148 2150
1525 7 2148 2160
1526 16 2146 2147
1527 7 2146 2160
1528 4 2145 2146
1529 11 2145 2150
1530 11 2144 2145
1531 11 2143 2144
1532 11 2142 2143
1533 11 2142 2151
1534 8 2141 2142
1535 8 2140 2141
1536 11 2140 2152
1537 11 2139 2140
1538 11 2138 2139
1539 11 2137 2138
1540 11 2137 2153
1541 16 2135 2136
1542 4 2135 2137
1543 4 2134 2153
1544 16 2133 2134
1545 11 2123 2124
1546 11 2121 2122
1547 7 2120 2134
1548 7 2120 2135
1549 5 2119 2120
1550 11 2119 2121
1551 11 2118 2119
1552 11 2117 2118
1553 11 2116 2117
1554 11 2116 2122
1555 8 2115 2116
1556 8 2114 2115
1557 11 2114 2123
1558 11 2113 2114
1559 11 2112 2113
1560 11 2111 2112
1561 11 2111 2124
1562 5 2110 2111
1563 11 2102 2103
1564 11 2100 2101
1565 16 2098 2099
1566 4 2098 2100
1567 7 2098 2110
1568 16 2096 2097
1569 7 2096 2110
1570 4 2095 2096
1571 11 2095 2100
1572 11 2094 2095
1573 11 2093 2094
1574 11 2092 2093
1575 11 2092 2101
1576 8 2091 2092
1577 8 2090 2091
1578 11 2090 2102
1579 11 2089 2090
1580 11 2088 2089
1581 11 2087 2088
1582 11 2087 2103
1583 16 2085 2086
1584 4 2085 2087
1585 4 2084 2103
1586 16 2083 2084
1587 11 2073 2074
1588 11 2071 2072
1589 7 2070 2084
1590 7 2070 2085
1591 5 2069 2070
1592 11 2069 2071
1593 11 2068 2069
1594 11 2067 2068
1595 11 2066 2067
1596 11 2066 2072
1597 8 2065 2066
1598 8 2064 2065
1599 11 2064 2073
1600 11 2063 2064
1601 11 2062 2063
1602 11 2061 2062
1603 11 2061 2074
1604 5 2060 2061
1605 11 2052 2053
1606 11 2050 2051
1607 16 2048 2049
1608 4 2048 2050
1609 7 2048 2060
1610 16 2046 2047
1611 7 2046 2060
1612 4 2045 2046
1613 11 2045 2050
1614 11 2044 2045
1615 11 2043 2044
1616 11 2042 2043
1617 11 2042 2051
1618 8 2041 2042
1619 8 2040 2041
1620 11 2040 2052
1621 11 2039 2040
1622 11 2038 2039
1623 11 2037 2038
1624 11 2037 2053
1625 16 2035 2036
1626 4 2035 2037
1627 4 2034 2053
1628 16 2033 2034
1629 11 2023 2024
1630 11 2021 2022
1631 7 2020 2034
1632 7 2020 2035
1633 5 2019 2020
1634 11 2019 2021
1635 11 2018 2019
1636 11 2017 2018
1637 11 2016 2017
1638 11 2016 2022
1639 8 2015 2016
1640 8 2014 2015
1641 11 2014 2023
1642 11 2013 2014
1643 11 2012 2013
1644 11 2011 2012
1645 11 2011 2024
1646 5 2010 2011
1647 11 2002 2003
1648 11 2000 2001
1649 16 1998 1999
1650 4 1998 2000
1651 7 1998 2010
1652 16 1996 1997
1653 7 1996 2010
1654 4 1995 1996
1655 11 1995 2000
1656 11 1994 1995
1657 11 1993 1994
1658 11 1992 1993
1659 11 1992 2001
1660 8 1991 1992
1661 8 1990 1991
1662 11 1990 2002
1663 11 1989 1990
1664 11 1988 1989
1665 11 1987 1988
1666 11 1987 2003
1667 16 1985 1986
1668 4 1985 1987
1669 4 1984 2003
1670 16 1983 1984
1671 11 1973 1974
1672 11 1971 1972
1673 7 1970 1984
1674 7 1970 1985
1675 5 1969 1970
1676 11 1969 1971
1677 11 1968 1969
1678 11 1967 1968
1679 11 1966 1967
1680 11 1966 1972
1681 8 1965 1966
1682 8 1964 1965
1683 11 1964 1973
1684 11 1963 1964
1685 11 1962 1963
1686 11 1961 1962
1687 11 1961 1974
1688 5 1960 1961
1689 11 1952 1953
1690 11 1950 1951
1691 16 1948 1949
1692 4 1948 1950
1693 7 1948 1960
1694 16 1946 1947
1695 7 1946 1960
1696 4 1945 1946
1697 11 1945 1950
1698 11 1944 1945
1699 11 1943 1944
1700 11 1942 1943
1701 11 1942 1951
1702 8 1941 1942
1703 8 1940 1941
1704 11 1940 1952
1705 11 1939 1940
1706 11 1938 1939
1707 11 1937 1938
1708 11 1937 1953
1709 16 1935 1936
1710 4 1935 1937
1711 4 1934 1953
1712 16 1933 1934
1713 11 1923 1924
1714 11 1921 1922
1715 7 1920 1934
1716 7 1920 1935
1717 5 1919 1920
1718 11 1919 1921
1719 11 1918 1919
1720 11 1917 1918
1721 11 1916 1917
1722 11 1916 1922
1723 8 1915 1916
1724 8 1914 1915
1725 11 1914 1923
1726 11 1913 1914
1727 11 1912 1913
1728 11 1911 1912
1729 11 1911 1924
1730 5 1910 1911
1731 11 1902 1903
1732 11 1900 1901
1733 16 1898 1899
1734 4 1898 1900
1735 7 1898 1910
1736 16 1896 1897
1737 7 1896 1910
1738 4 1895 1896
1739 11 1895 1900
1740 11 1894 1895
1741 11 1893 1894
1742 11 1892 1893
1743 11 1892 1901
1744 8 1891 1892
1745 8 1890 1891
1746 11 1890 1902
1747 11 1889 1890
1748 11 1888 1889
1749 11 1887 1888
1750 11 1887 1903
1751 16 1885 1886
1752 4 1885 1887
1753 4 1884 1903
1754 16 1883 1884
1755 9 1866 1867
1756 11 1866 1868
1757 9 1864 1865
1758 11 1864 1866
1759 11 1863 1864
1760 11 1862 1863
1761 11 1861 1862
1762 11 1861 1868
1763 2 1860 1861
1764 1 1859 1860
1765 3 1858 1859
1766 16 1856 1857
1767 7 1856 1858
1768 4 1855 1856
1769 11 1855 1869
1770 11 1854 1855
1771 7 1853 1884
1772 7 1853 1885
1773 5 1852 1853
1774 11 1852 1854
1775 11 1851 1852
1776 11 1850 1851
1777 11 1850 1869
1778 5 1849 1850
1779 11 1841 1842
1780 11 1839 1840
1781 16 1837 1838
1782 4 1837 1839
1783 7 1837 1849
1784 16 1835 1836
1785 7 1835 1849
1786 4 1834 1835
1787 11 1834 1839
1788 11 1833 1834
1789 11 1832 1833
1790 11 1831 1832
1791 11 1831 1840
1792 8 1830 1831
1793 8 1829 1830
1794 11 1829 1841
1795 11 1828 1829
1796 11 1827 1828
1797 11 1826 1827
1798 11 1826 1842
1799 16 1824 1825
1800 4 1824 1826
1801 4 1823 1842
1802 16 1822 1823
1803 11 1810 1811
1804 11 1808 1809
1805 7 1807 1823
1806 7 1807 1824
1807 5 1806 1807
1808 11 1806 1808
1809 11 1805 1806
1810 11 1804 1805
1811 11 1803 1804
1812 11 1803 1809
1813 8 1802 1803
1814 8 1801 1802
1815 11 1801 1810
1816 11 1800 1801
1817 11 1799 1800
1818 11 1798 1799
1819 11 1798 1811
1820 6 1797 1798
1821 11 2683 2684
1822 11 2681 2682
1823 6 2679 2680
1824 11 2679 2681
1825 11 2678 2679
1826 11 2677 2678
1827 11 2676 2677
1828 11 2676 2682
1829 8 2675 2676
1830 8 2674 2675
1831 11 2674 2683
1832 11 2673 2674
1833 11 2672 2673
1834 11 2671 2672
1835 11 2671 2684
1836 5 2670 2671
1837 11 2662 2663
1838 11 2660 2661
1839 16 2658 2659
1840 4 2658 2660
1841 7 2658 2670
1842 16 2656 2657
1843 7 2656 2670
1844 4 2655 2656
1845 11 2655 2660
1846 11 2654 2655
1847 11 2653 2654
1848 11 2652 2653
1849 11 2652 2661
1850 8 2651 2652
1851 8 2650 2651
1852 11 2650 2662
1853 11 2649 2650
1854 11 2648 2649
1855 11 2647 2648
1856 11 2647 2663
1857 16 2645 2646
1858 4 2645 2647
1859 4 2644 2663
1860 16 2643 2644
1861 9 2626 2627
1862 11 2626 2628
1863 9 2624 2625
1864 11 2624 2626
1865 11 2623 2624
1866 11 2622 2623
1867 11 2621 2622
1868 11 2621 2628
1869 2 2620 2621
1870 1 2619 2620
1871 3 2618 2619
1872 16 2616 2617
1873 7 2616 2618
1874 4 2615 2616
1875 11 2615 2629
1876 11 2614 2615
1877 7 2613 2644
1878 7 2613 2645
1879 5 2612 2613
1880 11 2612 2614
1881 11 2611 2612
1882 11 2610 2611
1883 11 2610 2629
1884 5 2609 2610
1885 11 2601 2602
1886 11 2599 2600
1887 16 2597 2598
1888 4 2597 2599
1889 7 2597 2609
1890 16 2595 2596
1891 7 2595 2609
1892 4 2594 2595
1893 11 2594 2599
1894 11 2593 2594
1895 11 2592 2593
1896 11 2591 2592
1897 11 2591 2600
1898 8 2590 2591
1899 8 2589 2590
1900 11 2589 2601
1901 11 2588 2589
1902 11 2587 2588
1903 11 2586 2587
1904 11 2586 2602
1905 16 2584 2585
1906 4 2584 2586
1907 4 2583 2602
1908 16 2582 2583
1909 11 2572 2573
1910 11 2570 2571
1911 7 2569 2583
1912 7 2569 2584
1913 5 2568 2569
1914 11 2568 2570
1915 11 2567 2568
1916 11 2566 2567
1917 11 2565 2566
1918 11 2565 2571
1919 8 2564 2565
1920 8 2563 2564
1921 11 2563 2572
1922 11 2562 2563
1923 11 2561 2562
1924 11 2560 2561
1925 11 2560 2573
1926 5 2559 2560
1927 11 2551 2552
1928 11 2549 2550
1929 16 2547 2548
1930 4 2547 2549
1931 7 2547 2559
1932 16 2545 2546
1933 7 2545 2559
1934 4 2544 2545
1935 11 2544 2549
1936 11 2543 2544
1937 11 2542 2543
1938 11 2541 2542
1939 11 2541 2550
1940 8 2540 2541
1941 8 2539 2540
1942 11 2539 2551
1943 11 2538 2539
1944 11 2537 2538
1945 11 2536 2537
1946 11 2536 2552
1947 16 2534 2535
1948 4 2534 2536
1949 4 2533 2552
1950 16 2532 2533
1951 11 2522 2523
1952 11 2520 2521
1953 7 2519 2533
1954 7 2519 2534
1955 5 2518 2519
1956 11 2518 2520
1957 11 2517 2518
1958 11 2516 2517
1959 11 2515 2516
1960 11 2515 2521
1961 8 2514 2515
1962 8 2513 2514
1963 11 2513 2522
1964 11 2512 2513
1965 11 2511 2512
1966 11 2510 2511
1967 11 2510 2523
1968 5 2509 2510
1969 11 2501 2502
1970 11 2499 2500
1971 16 2497 2498
1972 4 2497 2499
1973 7 2497 2509
1974 16 2495 2496
1975 7 2495 2509
1976 4 2494 2495
1977 11 2494 2499
1978 11 2493 2494
1979 11 2492 2493
1980 11 2491 2492
1981 11 2491 2500
1982 8 2490 2491
1983 8 2489 2490
1984 11 2489 2501
1985 11 2488 2489
1986 11 2487 2488
1987 11 2486 2487
1988 11 2486 2502
1989 16 2484 2485
1990 4 2484 2486
1991 4 2483 2502
1992 16 2482 2483
1993 11 2472 2473
1994 11 2470 2471
1995 7 2469 2483
1996 7 2469 2484
1997 5 2468 2469
1998 11 2468 2470
1999 11 2467 2468
2000 11 2466 2467
2001 11 2465 2466
2002 11 2465 2471
2003 8 2464 2465
2004 8 2463 2464
2005 11 2463 2472
2006 11 2462 2463
2007 11 2461 2462
2008 11 2460 2461
2009 11 2460 2473
2010 5 2459 2460
2011 11 2451 2452
2012 11 2449 2450
2013 16 2447 2448
2014 4 2447 2449
2015 7 2447 2459
2016 16 2445 2446
2017 7 2445 2459
2018 4 2444 2445
2019 11 2444 2449
2020 11 2443 2444
2021 11 2442 2443
2022 11 2441 2442
2023 11 2441 2450
2024 8 2440 2441
2025 8 2439 2440
2026 11 2439 2451
2027 11 2438 2439
2028 11 2437 2438
2029 11 2436 2437
2030 11 2436 2452
2031 16 2434 2435
2032 4 2434 2436
2033 4 2433 2452
2034 16 2432 2433
2035 11 2422 2423
2036 11 2420 2421
2037 7 2419 2433
2038 7 2419 2434
2039 5 2418 2419
2040 11 2418 2420
2041 11 2417 2418
2042 11 2416 2417
2043 11 2415 2416
2044 11 2415 2421
2045 8 2414 2415
2046 8 2413 2414
2047 11 2413 2422
2048 11 2412 2413
2049 11 2411 2412
2050 11 2410 2411
2051 11 2410 2423
2052 5 2409 2410
2053 11 2401 2402
2054 11 2399 2400
2055 16 2397 2398
2056 4 2397 2399
2057 7 2397 2409
2058 16 2395 2396
2059 7 2395 2409
2060 4 2394 2395
2061 11 2394 2399
2062 11 2393 2394
2063 11 2392 2393
2064 11 2391 2392
2065 11 2391 2400
2066 8 2390 2391
2067 8 2389 2390
2068 11 2389 2401
2069 11 2388 2389
2070 11 2387 2388
2071 11 2386 2387
2072 11 2386 2402
2073 16 2384 2385
2074 4 2384 2386
2075 4 2383 2402
2076 16 2382 2383
2077 11 2372 2373
2078 11 2370 2371
2079 7 2369 2383
2080 7 2369 2384
2081 5 2368 2369
2082 11 2368 2370
2083 11 2367 2368
2084 11 2366 2367
2085 11 2365 2366
2086 11 2365 2371
2087 8 2364 2365
2088 8 2363 2364
2089 11 2363 2372
2090 11 2362 2363
2091 11 2361 2362
2092 11 2360 2361
2093 11 2360 2373
2094 5 2359 2360
2095 11 2351 2352
2096 11 2349 2350
2097 16 2347 2348
2098 4 2347 2349
2099 7 2347 2359
2100 16 2345 2346
2101 7 2345 2359
2102 4 2344 2345
2103 11 2344 2349
2104 11 2343 2344
2105 11 2342 2343
2106 11 2341 2342
2107 11 2341 2350
2108 8 2340 2341
2109 8 2339 2340
2110 11 2339 2351
2111 11 2338 2339
2112 11 2337 2338
2113 11 2336 2337
2114 11 2336 2352
2115 16 2334 2335
2116 4 2334 2336
2117 4 2333 2352
2118 16 2332 2333
2119 9 2315 2316
2120 11 2315 2317
2121 9 2313 2314
2122 11 2313 2315
2123 11 2312 2313
2124 11 2311 2312
2125 11 2310 2311
2126 11 2310 2317
2127 2 2309 2310
2128 1 2308 2309
2129 3 2307 2308
2130 16 2305 2306
2131 7 2305 2307
2132 4 2304 2305
2133 11 2304 2318
2134 11 2303 2304
2135 7 2302 2333
2136 7 2302 2334
2137 5 2301 2302
2138 11 2301 2303
2139 11 2300 2301
2140 11 2299 2300
2141 11 2299 2318
2142 5 2298 2299
2143 11 2290 2291
2144 11 2288 2289
2145 16 2286 2287
2146 4 2286 2288
2147 7 2286 2298
2148 16 2284 2285
2149 7 2284 2298
2150 4 2283 2284
2151 11 2283 2288
2152 11 2282 2283
2153 11 2281 2282
2154 11 2280 2281
2155 11 2280 2289
2156 8 2279 2280
2157 8 2278 2279
2158 11 2278 2290
2159 11 2277 2278
2160 11 2276 2277
2161 11 2275 2276
2162 11 2275 2291
2163 16 2273 2274
2164 4 2273 2275
2165 4 2272 2291
2166 16 2271 2272
2167 11 2259 2260
2168 11 2257 2258
2169 7 2256 2272
2170 7 2256 2273
2171 5 2255 2256
2172 11 2255 2257
2173 11 2254 2255
2174 11 2253 2254
2175 11 2252 2253
2176 11 2252 2258
2177 8 2251 2252
2178 8 2250 2251
2179 11 2250 2259
2180 11 2249 2250
2181 11 2248 2249
2182 11 2247 2248
2183 11 2247 2260
2184 6 2246 2247
2185 12 439 449
2186 12 438 448
2187 12 437 447
2188 12 436 446
2189 14 435 444
2190 14 435 445
2191 12 433 443
2192 12 432 442
2193 12 428 441
2194 12 427 440
2195 12 417 424
2196 12 416 423
2197 12 409 422
2198 12 408 421
2199 12 404 420
2200 12 403 419
2201 12 384 397
2202 12 383 396
2203 15 382 395
2204 15 380 394
2205 12 378 393
2206 12 377 392
2207 10 375 390
2208 10 375 391
2209 10 374 388
2210 10 374 389
2211 13 373 387
2212 12 369 386
2213 12 366 385
2214 12 356 363
2215 12 355 362
2216 12 348 361
2217 12 347 360
2218 12 343 359
2219 12 342 358
2220 12 328 336
2221 12 327 335
2222 12 326 334
2223 12 325 333
2224 12 322 332
2225 12 321 331
2226 12 317 330
2227 12 316 329
2228 12 306 313
2229 12 305 312
2230 12 298 311
2231 12 297 310
2232 12 293 309
2233 12 292 308
2234 12 278 286
2235 12 277 285
2236 12 276 284
2237 12 275 283
2238 12 272 282
2239 12 271 281
2240 12 267 280
2241 12 266 279
2242 12 256 263
2243 12 255 262
2244 12 248 261
2245 12 247 260
2246 12 243 259
2247 12 242 258
2248 12 228 236
2249 12 227 235
2250 12 226 234
2251 12 225 233
2252 12 222 232
2253 12 221 231
2254 12 217 230
2255 12 216 229
2256 12 206 213
2257 12 205 212
2258 12 198 211
2259 12 197 210
2260 12 193 209
2261 12 192 208
2262 12 178 186
2263 12 177 185
2264 12 176 184
2265 12 175 183
2266 12 172 182
2267 12 171 181
2268 12 167 180
2269 12 166 179
2270 12 156 163
2271 12 155 162
2272 12 148 161
2273 12 147 160
2274 12 143 159
2275 12 142 158
2276 12 128 136
2277 12 127 135
2278 12 126 134
2279 12 125 133
2280 12 122 132
2281 12 121 131
2282 12 117 130
2283 12 116 129
2284 12 106 113
2285 12 105 112
2286 12 98 111
2287 12 97 110
2288 12 93 109
2289 12 92 108
2290 12 73 86
2291 12 72 85
2292 15 71 84
2293 15 69 83
2294 12 67 82
2295 12 66 81
2296 10 64 79
2297 10 64 80
2298 10 63 77
2299 10 63 78
2300 13 62 76
2301 12 58 75
2302 12 55 74
2303 12 45 52
2304 12 44 51
2305 12 37 50
2306 12 36 49
2307 12 32 48
2308 12 31 47
2309 12 15 25
2310 12 14 24
2311 12 13 23
2312 12 12 22
2313 12 9 21
2314 12 8 20
2315 12 4 19
2316 12 3 18
2317 14 1 16
2318 14 1 17
2319 12 888 898
2320 12 887 897
2321 12 886 896
2322 12 885 895
2323 14 884 893
2324 14 884 894
2325 12 882 892
2326 12 881 891
2327 12 877 890
2328 12 876 889
2329 12 866 873
2330 12 865 872
2331 12 858 871
2332 12 857 870
2333 12 853 869
2334 12 852 868
2335 12 833 846
2336 12 832 845
2337 15 831 844
2338 15 829 843
2339 12 827 842
2340 12 826 841
2341 10 824 839
2342 10 824 840
2343 10 823 837
2344 10 823 838
2345 13 822 836
2346 12 818 835
2347 12 815 834
2348 12 805 812
2349 12 804 811
2350 12 797 810
2351 12 796 809
2352 12 792 808
2353 12 791 807
2354 12 777 785
2355 12 776 784
2356 12 775 783
2357 12 774 782
2358 12 771 781
2359 12 770 780
2360 12 766 779
2361 12 765 778
2362 12 755 762
2363 12 754 761
2364 12 747 760
2365 12 746 759
2366 12 742 758
2367 12 741 757
2368 12 727 735
2369 12 726 734
2370 12 725 733
2371 12 724 732
2372 12 721 731
2373 12 720 730
2374 12 716 729
2375 12 715 728
2376 12 705 712
2377 12 704 711
2378 12 697 710
2379 12 696 709
2380 12 692 708
2381 12 691 707
2382 12 677 685
2383 12 676 684
2384 12 675 683
2385 12 674 682
2386 12 671 681
2387 12 670 680
2388 12 666 679
2389 12 665 678
2390 12 655 662
2391 12 654 661
2392 12 647 660
2393 12 646 659
2394 12 642 658
2395 12 641 657
2396 12 627 635
2397 12 626 634
2398 12 625 633
2399 12 624 632
2400 12 621 631
2401 12 620 630
2402 12 616 629
2403 12 615 628
2404 12 605 612
2405 12 604 611
2406 12 597 610
2407 12 596 609
2408 12 592 608
2409 12 591 607
2410 12 577 585
2411 12 576 584
2412 12 575 583
2413 12 574 582
2414 12 571 581
2415 12 570 580
2416 12 566 579
2417 12 565 578
2418 12 555 562
2419 12 554 561
2420 12 547 560
2421 12 546 559
2422 12 542 558
2423 12 541 557
2424 12 522 535
2425 12 521 534
2426 15 520 533
2427 15 518 532
2428 12 516 531
2429 12 515 530
2430 10 513 528
2431 10 513 529
2432 10 512 526
2433 10 512 527
2434 13 511 525
2435 12 507 524
2436 12 504 523
2437 12 494 501
2438 12 493 500
2439 12 486 499
2440 12 485 498
2441 12 481 497
2442 12 480 496
2443 12 464 474
2444 12 463 473
2445 12 462 472
2446 12 461 471
2447 12 458 470
2448 12 457 469
2449 12 453 468
2450 12 452 467
2451 14 450 465
2452 14 450 466
2453 12 1337 1347
2454 12 1336 1346
2455 12 1335 1345
2456 12 1334 1344
2457 14 1333 1342
2458 14 1333 1343
2459 12 1331 1341
2460 12 1330 1340
2461 12 1326 1339
2462 12 1325 1338
2463 12 1315 1322
2464 12 1314 1321
2465 12 1307 1320
2466 12 1306 1319
2467 12 1302 1318
2468 12 1301 1317
2469 12 1282 1295
2470 12 1281 1294
2471 15 1280 1293
2472 15 1278 1292
2473 12 1276 1291
2474 12 1275 1290
2475 10 1273 1288
2476 10 1273 1289
2477 10 1272 1286
2478 10 1272 1287
2479 13 1271 1285
2480 12 1267 1284
2481 12 1264 1283
2482 12 1254 1261
2483 12 1253 1260
2484 12 1246 1259
2485 12 1245 1258
2486 12 1241 1257
2487 12 1240 1256
2488 12 1226 1234
2489 12 1225 1233
2490 12 1224 1232
2491 12 1223 1231
2492 12 1220 1230
2493 12 1219 1229
2494 12 1215 1228
2495 12 1214 1227
2496 12 1204 1211
2497 12 1203 1210
2498 12 1196 1209
2499 12 1195 1208
2500 12 1191 1207
2501 12 1190 1206
2502 12 1176 1184
2503 12 1175 1183
2504 12 1174 1182
2505 12 1173 1181
2506 12 1170 1180
2507 12 1169 1179
2508 12 1165 1178
2509 12 1164 1177
2510 12 1154 1161
2511 12 1153 1160
2512 12 1146 1159
2513 12 1145 1158
2514 12 1141 1157
2515 12 1140 1156
2516 12 1126 1134
2517 12 1125 1133
2518 12 1124 1132
2519 12 1123 1131
2520 12 1120 1130
2521 12 1119 1129
2522 12 1115 1128
2523 12 1114 1127
2524 12 1104 1111
2525 12 1103 1110
2526 12 1096 1109
2527 12 1095 1108
2528 12 1091 1107
2529 12 1090 1106
2530 12 1076 1084
2531 12 1075 1083
2532 12 1074 1082
2533 12 1073 1081
2534 12 1070 1080
2535 12 1069 1079
2536 12 1065 1078
2537 12 1064 1077
2538 12 1054 1061
2539 12 1053 1060
2540 12 1046 1059
2541 12 1045 1058
2542 12 1041 1057
2543 12 1040 1056
2544 12 1026 1034
2545 12 1025 1033
2546 12 1024 1032
2547 12 1023 1031
2548 12 1020 1030
2549 12 1019 1029
2550 12 1015 1028
2551 12 1014 1027
2552 12 1004 1011
2553 12 1003 1010
2554 12 996 1009
2555 12 995 1008
2556 12 991 1007
2557 12 990 1006
2558 12 971 984
2559 12 970 983
2560 15 969 982
2561 15 967 981
2562 12 965 980
2563 12 964 979
2564 10 962 977
2565 10 962 978
2566 10 961 975
2567 10 961 976
2568 13 960 974
2569 12 956 973
2570 12 953 972
2571 12 943 950
2572 12 942 949
2573 12 935 948
2574 12 934 947
2575 12 930 946
2576 12 929 945
2577 12 913 923
2578 12 912 922
2579 12 911 921
2580 12 910 920
2581 12 907 919
2582 12 906 918
2583 12 902 917
2584 12 901 916
2585 14 899 914
2586 14 899 915
2587 12 1786 1796
2588 12 1785 1795
2589 12 1784 1794
2590 12 1783 1793
2591 14 1782 1791
2592 14 1782 1792
2593 12 1780 1790
2594 12 1779 1789
2595 12 1775 1788
2596 12 1774 1787
2597 12 1764 1771
2598 12 1763 1770
2599 12 1756 1769
2600 12 1755 1768
2601 12 1751 1767
2602 12 1750 1766
2603 12 1731 1744
2604 12 1730 1743
2605 15 1729 1742
2606 15 1727 1741
2607 12 1725 1740
2608 12 1724 1739
2609 10 1722 1737
2610 10 1722 1738
2611 10 1721 1735
2612 10 1721 1736
2613 13 1720 1734
2614 12 1716 1733
2615 12 1713 1732
2616 12 1703 1710
2617 12 1702 1709
2618 12 1695 1708
2619 12 1694 1707
2620 12 1690 1706
2621 12 1689 1705
2622 12 1675 1683
2623 12 1674 1682
2624 12 1673 1681
2625 12 1672 1680
2626 12 1669 1679
2627 12 1668 1678
2628 12 1664 1677
2629 12 1663 1676
2630 12 1653 1660
2631 12 1652 1659
2632 12 1645 1658
2633 12 1644 1657
2634 12 1640 1656
2635 12 1639 1655
2636 12 1625 1633
2637 12 1624 1632
2638 12 1623 1631
2639 12 1622 1630
2640 12 1619 1629
2641 12 1618 1628
2642 12 1614 1627
2643 12 1613 1626
2644 12 1603 1610
2645 12 1602 1609
2646 12 1595 1608
2647 12 1594 1607
2648 12 1590 1606
2649 12 1589 1605
2650 12 1575 1583
2651 12 1574 1582
2652 12 1573 1581
2653 12 1572 1580
2654 12 1569 1579
2655 12 1568 1578
2656 12 1564 1577
2657 12 1563 1576
2658 12 1553 1560
2659 12 1552 1559
2660 12 1545 1558
2661 12 1544 1557
2662 12 1540 1556
2663 12 1539 1555
2664 12 1525 1533
2665 12 1524 1532
2666 12 1523 1531
2667 12 1522 1530
2668 12 1519 1529
2669 12 1518 1528
2670 12 1514 1527
2671 12 1513 1526
2672 12 1503 1510
2673 12 1502 1509
2674 12 1495 1508
2675 12 1494 1507
2676 12 1490 1506
2677 12 1489 1505
2678 12 1475 1483
2679 12 1474 1482
2680 12 1473 1481
2681 12 1472 1480
2682 12 1469 1479
2683 12 1468 1478
2684 12 1464 1477
2685 12 1463 1476
2686 12 1453 1460
2687 12 1452 1459
2688 12 1445 1458
2689 12 1444 1457
2690 12 1440 1456
2691 12 1439 1455
2692 12 1420 1433
2693 12 1419 1432
2694 15 1418 1431
2695 15 1416 1430
2696 12 1414 1429
2697 12 1413 1428
2698 10 1411 1426
2699 10 1411 1427
2700 10 1410 1424
2701 10 1410 1425
2702 13 1409 1423
2703 12 1405 1422
2704 12 1402 1421
2705 12 1392 1399
2706 12 1391 1398
2707 12 1384 1397
2708 12 1383 1396
2709 12 1379 1395
2710 12 1378 1394
2711 12 1362 1372
2712 12 1361 1371
2713 12 1360 1370
2714 12 1359 1369
2715 12 1356 1368
2716 12 1355 1367
2717 12 1351 1366
2718 12 1350 1365
2719 14 1348 1363
2720 14 1348 1364
2721 12 2235 2245
2722 12 2234 2244
2723 12 2233 2243
2724 12 2232 2242
2725 14 2231 2240
2726 14 2231 2241
2727 12 2229 2239
2728 12 2228 2238
2729 12 2224 2237
2730 12 2223 2236
2731 12 2213 2220
2732 12 2212 2219
2733 12 2205 2218
2734 12 2204 2217
2735 12 2200 2216
2736 12 2199 2215
2737 12 2180 2193
2738 12 2179 2192
2739 15 2178 2191
2740 15 2176 2190
2741 12 2174 2189
2742 12 2173 2188
2743 10 2171 2186
2744 10 2171 2187
2745 10 2170 2184
2746 10 2170 2185
2747 13 2169 2183
2748 12 2165 2182
2749 12 2162 2181
2750 12 2152 2159
2751 12 2151 2158
2752 12 2144 2157
2753 12 2143 2156
2754 12 2139 2155
2755 12 2138 2154
2756 12 2124 2132
2757 12 2123 2131
2758 12 2122 2130
2759 12 2121 2129
2760 12 2118 2128
2761 12 2117 2127
2762 12 2113 2126
2763 12 2112 2125
2764 12 2102 2109
2765 12 2101 2108
2766 12 2094 2107
2767 12 2093 2106
2768 12 2089 2105
2769 12 2088 2104
2770 12 2074 2082
2771 12 2073 2081
2772 12 2072 2080
2773 12 2071 2079
2774 12 2068 2078
2775 12 2067 2077
2776 12 2063 2076
2777 12 2062 2075
2778 12 2052 2059
2779 12 2051 2058
2780 12 2044 2057
2781 12 2043 2056
2782 12 2039 2055
2783 12 2038 2054
2784 12 2024 2032
2785 12 2023 2031
2786 12 2022 2030
2787 12 2021 2029
2788 12 2018 2028
2789 12 2017 2027
2790 12 2013 2026
2791 12 2012 2025
2792 12 2002 2009
2793 12 2001 2008
2794 12 1994 2007
2795 12 1993 2006
2796 12 1989 2005
2797 12 1988 2004
2798 12 1974 1982
2799 12 1973 1981
2800 12 1972 1980
2801 12 1971 1979
2802 12 1968 1978
2803 12 1967 1977
2804 12 1963 1976
2805 12 1962 1975
2806 12 1952 1959
2807 12 1951 1958
2808 12 1944 1957
2809 12 1943 1956
2810 12 1939 1955
2811 12 1938 1954
2812 12 1924 1932
2813 12 1923 1931
2814 12 1922 1930
2815 12 1921 1929
2816 12 1918 1928
2817 12 1917 1927
2818 12 1913 1926
2819 12 1912 1925
2820 12 1902 1909
2821 12 1901 1908
2822 12 1894 1907
2823 12 1893 1906
2824 12 1889 1905
2825 12 1888 1904
2826 12 1869 1882
2827 12 1868 1881
2828 15 1867 1880
2829 15 1865 1879
2830 12 1863 1878
2831 12 1862 1877
2832 10 1860 1875
2833 10 1860 1876
2834 10 1859 1873
2835 10 1859 1874
2836 13 1858 1872
2837 12 1854 1871
2838 12 1851 1870
2839 12 1841 1848
2840 12 1840 1847
2841 12 1833 1846
2842 12 1832 1845
2843 12 1828 1844
2844 12 1827 1843
2845 12 1811 1821
2846 12 1810 1820
2847 12 1809 1819
2848 12 1808 1818
2849 12 1805 1817
2850 12 1804 1816
2851 12 1800 1815
2852 12 1799 1814
2853 14 1797 1812
2854 14 1797 1813
2855 12 2684 2694
2856 12 2683 2693
2857 12 2682 2692
2858 12 2681 2691
2859 14 2680 2689
2860 14 2680 2690
2861 12 2678 2688
2862 12 2677 2687
2863 12 2673 2686
2864 12 2672 2685
2865 12 2662 2669
2866 12 2661 2668
2867 12 2654 2667
2868 12 2653 2666
2869 12 2649 2665
2870 12 2648 2664
2871 12 2629 2642
2872 12 2628 2641
2873 15 2627 2640
2874 15 2625 2639
2875 12 2623 2638
2876 12 2622 2637
2877 10 2620 2635
2878 10 2620 2636
2879 10 2619 2633
2880 10 2619 2634
2881 13 2618 2632
2882 12 2614 2631
2883 12 2611 2630
2884 12 2601 2608
2885 12 2600 2607
2886 12 2593 2606
2887 12 2592 2605
2888 12 2588 2604
2889 12 2587 2603
2890 12 2573 2581
2891 12 2572 2580
2892 12 2571 2579
2893 12 2570 2578
2894 12 2567 2577
2895 12 2566 2576
2896 12 2562 2575
2897 12 2561 2574
2898 12 2551 2558
2899 12 2550 2557
2900 12 2543 2556
2901 12 2542 2555
2902 12 2538 2554
2903 12 2537 2553
2904 12 2523 2531
2905 12 2522 2530
2906 12 2521 2529
2907 12 2520 2528
2908 12 2517 2527
2909 12 2516 2526
2910 12 2512 2525
2911 12 2511 2524
2912 12 2501 2508
2913 12 2500 2507
2914 12 2493 2506
2915 12 2492 2505
2916 12 2488 2504
2917 12 2487 2503
2918 12 2473 2481
2919 12 2472 2480
2920 12 2471 2479
2921 12 2470 2478
2922 12 2467 2477
2923 12 2466 2476
2924 12 2462 2475
2925 12 2461 2474
2926 12 2451 2458
2927 12 2450 2457
2928 12 2443 2456
2929 12 2442 2455
2930 12 2438 2454
2931 12 2437 2453
2932 12 2423 2431
2933 12 2422 2430
2934 12 2421 2429
2935 12 2420 2428
2936 12 2417 2427
2937 12 2416 2426
2938 12 2412 2425
2939 12 2411 2424
2940 12 2401 2408
2941 12 2400 2407
2942 12 2393 2406
2943 12 2392 2405
2944 12 2388 2404
2945 12 2387 2403
2946 12 2373 2381
2947 12 2372 2380
2948 12 2371 2379
2949 12 2370 2378
2950 12 2367 2377
2951 12 2366 2376
2952 12 2362 2375
2953 12 2361 2374
2954 12 2351 2358
2955 12 2350 2357
2956 12 2343 2356
2957 12 2342 2355
2958 12 2338 2354
2959 12 2337 2353
2960 12 2318 2331
2961 12 2317 2330
2962 15 2316 2329
2963 15 2314 2328
2964 12 2312 2327
2965 12 2311 2326
2966 10 2309 2324
2967 10 2309 2325
2968 10 2308 2322
2969 10 2308 2323
2970 13 2307 2321
2971 12 2303 2320
2972 12 2300 2319
2973 12 2290 2297
2974 12 2289 2296
2975 12 2282 2295
2976 12 2281 2294
2977 12 2277 2293
2978 12 2276 2292
2979 12 2260 2270
2980 12 2259 2269
2981 12 2258 2268
2982 12 2257 2267
2983 12 2254 2266
2984 12 2253 2265
2985 12 2249 2264
2986 12 2248 2263
2987 14 2246 2261
2988 14 2246 2262

Angles

1 24 435 434 436
2 20 434 436 437
3 24 433 434 435
4 20 433 434 436
5 20 432 431 437
6 20 432 433 434
7 20 431 432 433
8 20 431 437 436
9 27 430 429 438
10 27 430 431 432
11 27 430 431 437
12 19 429 430 431
13 20 429 438 439
14 27 428 429 430
15 20 428 429 438
16 20 427 426 439
17 20 427 428 429
18 20 426 427 428
19 20 426 439 438
20 23 425 426 427
21 23 425 426 439
22 22 415 413 425
23 25 414 413 415
24 28 414 413 425
25 18 413 415 416
26 17 413 425 426
27 28 412 411 425
28 18 411 410 415
29 17 411 425 426
30 16 411 425 413
31 25 410 411 412
32 22 410 411 425
33 18 410 415 413
34 20 410 415 416
35 18 409 410 411
36 20 409 410 415
37 20 408 407 416
38 20 408 409 410
39 20 407 408 409
40 20 407 416 415
41 27 406 405 417
42 27 406 407 408
43 27 406 407 416
44 19 405 406 407
45 20 405 417 418
46 27 404 405 406
47 20 404 405 417
48 20 403 402 418
49 20 403 404 405
50 20 402 403 404
51 20 402 418 417
52 25 401 400 402
53 18 400 402 403
54 18 400 402 418
55 18 399 418 417
56 18 399 418 402
57 16 399 368 400
58 25 398 399 418
59 26 382 381 383
60 26 380 379 381
61 26 379 381 382
62 20 379 381 383
63 26 378 379 380
64 20 378 379 381
65 20 377 376 383
66 20 377 378 379
67 20 376 377 378
68 20 376 383 381
69 15 375 376 377
70 15 375 376 383
71 13 374 375 376
72 21 373 374 375
73 28 372 371 373
74 18 371 370 384
75 14 371 373 374
76 25 370 371 372
77 22 370 371 373
78 18 369 370 371
79 20 369 370 384
80 23 368 367 369
81 28 368 399 398
82 22 368 399 418
83 28 368 400 401
84 22 368 400 402
85 17 367 368 399
86 17 367 368 400
87 20 367 369 370
88 20 366 365 384
89 23 366 367 368
90 20 366 367 369
91 20 365 366 367
92 20 365 384 370
93 23 364 365 366
94 23 364 365 384
95 22 354 352 364
96 25 353 352 354
97 28 353 352 364
98 18 352 354 355
99 17 352 364 365
100 28 351 350 364
101 18 350 349 354
102 17 350 364 365
103 16 350 364 352
104 25 349 350 351
105 22 349 350 364
106 18 349 354 352
107 20 349 354 355
108 18 348 349 350
109 20 348 349 354
110 20 347 346 355
111 20 347 348 349
112 20 346 347 348
113 20 346 355 354
114 27 345 344 356
115 27 345 346 347
116 27 345 346 355
117 19 344 345 346
118 20 344 356 357
119 27 343 344 345
120 20 343 344 356
121 20 342 341 357
122 20 342 343 344
123 20 341 342 343
124 20 341 357 356
125 25 340 339 341
126 18 339 341 342
127 18 339 341 357
128 18 338 357 356
129 18 338 357 341
130 16 338 324 339
131 25 337 338 357
132 23 324 323 325
133 28 324 338 337
134 22 324 338 357
135 28 324 339 340
136 22 324 339 341
137 17 323 324 338
138 17 323 324 339
139 20 323 325 326
140 23 322 323 324
141 20 322 323 325
142 20 321 320 326
143 20 321 322 323
144 20 320 321 322
145 20 320 326 325
146 27 319 318 327
147 27 319 320 321
148 27 319 320 326
149 19 318 319 320
150 20 318 327 328
151 27 317 318 319
152 20 317 318 327
153 20 316 315 328
154 20 316 317 318
155 20 315 316 317
156 20 315 328 327
157 23 314 315 316
158 23 314 315 328
159 22 304 302 314
160 25 303 302 304
161 28 303 302 314
162 18 302 304 305
163 17 302 314 315
164 28 301 300 314
165 18 300 299 304
166 17 300 314 315
167 16 300 314 302
168 25 299 300 301
169 22 299 300 314
170 18 299 304 302
171 20 299 304 305
172 18 298 299 300
173 20 298 299 304
174 20 297 296 305
175 20 297 298 299
176 20 296 297 298
177 20 296 305 304
178 27 295 294 306
179 27 295 296 297
180 27 295 296 305
181 19 294 295 296
182 20 294 306 307
183 27 293 294 295
184 20 293 294 306
185 20 292 291 307
186 20 292 293 294
187 20 291 292 293
188 20 291 307 306
189 25 290 289 291
190 18 289 291 292
191 18 289 291 307
192 18 288 307 306
193 18 288 307 291
194 16 288 274 289
195 25 287 288 307
196 23 274 273 275
197 28 274 288 287
198 22 274 288 307
199 28 274 289 290
200 22 274 289 291
201 17 273 274 288
202 17 273 274 289
203 20 273 275 276
204 23 272 273 274
205 20 272 273 275
206 20 271 270 276
207 20 271 272 273
208 20 270 271 272
209 20 270 276 275
210 27 269 268 277
211 27 269 270 271
212 27 269 270 276
213 19 268 269 270
214 20 268 277 278
215 27 267 268 269
216 20 267 268 277
217 20 266 265 278
218 20 266 267 268
219 20 265 266 267
220 20 265 278 277
221 23 264 265 266
222 23 264 265 278
223 22 254 252 264
224 25 253 252 254
225 28 253 252 264
226 18 252 254 255
227 17 252 264 265
228 28 251 250 264
229 18 250 249 254
230 17 250 264 265
231 16 250 264 252
232 25 249 250 251
233 22 249 250 264
234 18 249 254 252
235 20 249 254 255
236 18 248 249 250
237 20 248 249 254
238 20 247 246 255
239 20 247 248 249
240 20 246 247 248
241 20 246 255 254
242 27 245 244 256
243 27 245 246 247
244 27 245 246 255
245 19 244 245 246
246 20 244 256 257
247 27 243 244 245
248 20 243 244 256
249 20 242 241 257
250 20 242 243 244
251 20 241 242 243
252 20 241 257 256
253 25 240 239 241
254 18 239 241 242
255 18 239 241 257
256 18 238 257 256
257 18 238 257 241
258 16 238 224 239
259 25 237 238 257
260 23 224 223 225
261 28 224 238 237
262 22 224 238 257
263 28 224 239 240
264 22 224 239 241
265 17 223 224 238
266 17 223 224 239
267 20 223 225 226
268 23 222 223 224
269 20 222 223 225
270 20 221 220 226
271 20 221 222 223
272 20 220 221 222
273 20 220 226 225
274 27 219 218 227
275 27 219 220 221
276 27 219 220 226
277 19 218 219 220
278 20 218 227 228
279 27 217 218 219
280 20 217 218 227
281 20 216 215 228
282 20 216 217 218
283 20 215 216 217
284 20 215 228 227
285 23 214 215 216
286 23 214 215 228
287 22 204 202 214
288 25 203 202 204
289 28 203 202 214
290 18 202 204 205
291 17 202 214 215
292 28 201 200 214
293 18 200 199 204
294 17 200 214 215
295 16 200 214 202
296 25 199 200 201
297 22 199 200 214
298 18 199 204 202
299 20 199 204 205
300 18 198 199 200
301 20 198 199 204
302 20 197 196 205
303 20 197 198 199
304 20 196 197 198
305 20 196 205 204
306 27 195 194 206
307 27 195 196 197
308 27 195 196 205
309 19 194 195 196
310 20 194 206 207
311 27 193 194 195
312 20 193 194 206
313 20 192 191 207
314 20 192 193 194
315 20 191 192 193
316 20 191 207 206
317 25 190 189 191
318 18 189 191 192
319 18 189 191 207
320 18 188 207 206
321 18 188 207 191
322 16 188 174 189
323 25 187 188 207
324 23 174 173 175
325 28 174 188 187
326 22 174 188 207
327 28 174 189 190
328 22 174 189 191
329 17 173 174 188
330 17 173 174 189
331 20 173 175 176
332 23 172 173 174
333 20 172 173 175
334 20 171 170 176
335 20 171 172 173
336 20 170 171 172
337 20 170 176 175
338 27 169 168 177
339 27 169 170 171
340 27 169 170 176
341 19 168 169 170
342 20 168 177 178
343 27 167 168 169
344 20 167 168 177
345 20 166 165 178
346 20 166 167 168
347 20 165 166 167
348 20 165 178 177
349 23 164 165 166
350 23 164 165 178
351 22 154 152 164
352 25 153 152 154
353 28 153 152 164
354 18 152 154 155
355 17 152 164 165
356 28 151 150 164
357 18 150 149 154
358 17 150 164 165
359 16 150 164 152
360 25 149 150 151
361 22 149 150 164
362 18 149 154 152
363 20 149 154 155
364 18 148 149 150
365 20 148 149 154
366 20 147 146 155
367 20 147 148 149
368 20 146 147 148
369 20 146 155 154
370 27 145 144 156
371 27 145 146 147
372 27 145 146 155
373 19 144 145 146
374 20 144 156 157
375 27 143 144 145
376 20 143 144 156
377 20 142 141 157
378 20 142 143 144
379 20 141 142 143
380 20 141 157 156
381 25 140 139 141
382 18 139 141 142
383 18 139 141 157
384 18 138 157 156
385 18 138 157 141
386 16 138 124 139
387 25 137 138 157
388 23 124 123 125
389 28 124 138 137
390 22 124 138 157
391 28 124 139 140
392 22 124 139 141
393 17 123 124 138
394 17 123 124 139
395 20 123 125 126
396 23 122 123 124
397 20 122 123 125
398 20 121 120 126
399 20 121 122 123
400 20 120 121 122
401 20 120 126 125
402 27 119 118 127
403 27 119 120 121
404 27 119 120 126
405 19 118 119 120
406 20 118 127 128
407 27 117 118 119
408 20 117 118 127
409 20 116 115 128
410 20 116 117 118
411 20 115 116 117
412 20 115 128 127
413 23 114 115 116
414 23 114 115 128
415 22 104 102 114
416 25 103 102 104
417 28 103 102 114
418 18 102 104 105
419 17 102 114 115
420 28 101 100 114
421 18 100 99 104
422 17 100 114 115
423 16 100 114 102
424 25 99 100 101
425 22 99 100 114
426 18 99 104 102
427 20 99 104 105
428 18 98 99 100
429 20 98 99 104
430 20 97 96 105
431 20 97 98 99
432 20 96 97 98
433 20 96 105 104
434 27 95 94 106
435 27 95 96 97
436 27 95 96 105
437 19 94 95 96
438 20 94 106 107
439 27 93 94 95
440 20 93 94 106
441 20 92 91 107
442 20 92 93 94
443 20 91 92 93
444 20 91 107 106
445 25 90 89 91
446 18 89 91 92
447 18 89 91 107
448 18 88 107 106
449 18 88 107 91
450 16 88 57 89
451 25 87 88 107
452 26 71 70 72
453 26 69 68 70
454 26 68 70 71
455 20 68 70 72
456 26 67 68 69
457 20 67 68 70
458 20 66 65 72
459 20 66 67 68
460 20 65 66 67
461 20 65 72 70
462 15 64 65 66
463 15 64 65 72
464 13 63 64 65
465 21 62 63 64
466 28 61 60 62
467 18 60 59 73
468 14 60 62 63
469 25 59 60 61
470 22 59 60 62
471 18 58 59 60
472 20 58 59 73
473 23 57 56 58
474 28 57 88 87
475 22 57 88 107
476 28 57 89 90
477 22 57 89 91
478 17 56 57 88
479 17 56 57 89
480 20 56 58 59
481 20 55 54 73
482 23 55 56 57
483 20 55 56 58
484 20 54 55 56
485 20 54 73 59
486 23 53 54 55
487 23 53 54 73
488 22 43 41 53
489 25 42 41 43
490 28 42 41 53
491 18 41 43 44
492 17 41 53 54
493 28 40 39 53
494 18 39 38 43
495 17 39 53 54
496 16 39 53 41
497 25 38 39 40
498 22 38 39 53
499 18 38 43 41
500 20 38 43 44
501 18 37 38 39
502 20 37 38 43
503 20 36 35 44
504 20 36 37 38
505 20 35 36 37
506 20 35 44 43
507 27 34 33 45
508 27 34 35 36
509 27 34 35 44
510 19 33 34 35
511 20 33 45 46
512 27 32 33 34
513 20 32 33 45
514 20 31 30 46
515 20 31 32 33
516 20 30 31 32
517 20 30 46 45
518 25 29 28 30
519 18 28 30 31
520 18 28 30 46
521 18 27 46 45
522 18 27 46 30
523 16 27 11 28
524 25 26 27 46
525 23 11 10 12
526 28 11 27 26
527 22 11 27 46
528 28 11 28 29
529 22 11 28 30
530 17 10 11 27
531 17 10 11 28
532 20 10 12 13
533 23 9 10 11
534 20 9 10 12
535 20 8 7 13
536 20 8 9 10
537 20 7 8 9
538 20 7 13 12
539 27 6 5 14
540 27 6 7 8
541 27 6 7 13
542 19 5 6 7
543 20 5 14 15
544 27 4 5 6
545 20 4 5 14
546 20 3 2 15
547 20 3 4 5
548 20 2 3 4
549 20 2 15 14
550 24 1 2 3
551 24 1 2 15
552 24 884 883 885
553 20 883 885 886
554 24 882 883 884
555 20 882 883 885
556 20 881 880 886
557 20 881 882 883
558 20 880 881 882
559 20 880 886 885
560 27 879 878 887
561 27 879 880 881
562 27 879 880 886
563 19 878 879 880
564 20 878 887 888
565 27 877 878 879
566 20 877 878 887
567 20 876 875 888
568 20 876 877 878
569 20 875 876 877
570 20 875 888 887
571 23 874 875 876
572 23 874 875 888
573 22 864 862 874
574 25 863 862 864
575 28 863 862 874
576 18 862 864 865
577 17 862 874 875
578 28 861 860 874
579 18 860 859 864
580 17 860 874 875
581 16 860 874 862
582 25 859 860 861
583 22 859 860 874
584 18 859 864 862
585 20 859 864 865
586 18 858 859 860
587 20 858 859 864
588 20 857 856 865
589 20 857 858 859
590 20 856 857 858
591 20 856 865 864
592 27 855 854 866
593 27 855 856 857
594 27 855 856 865
595 19 854 855 856
596 20 854 866 867
597 27 853 854 855
598 20 853 854 866
599 20 852 851 867
600 20 852 853 854
601 20 851 852 853
602 20 851 867 866
603 25 850 849 851
604 18 849 851 852
605 18 849 851 867
606 18 848 867 866
607 18 848 867 851
608 16 848 817 849
609 25 847 848 867
610 26 831 830 832
611 26 829 828 830
612 26 828 830 831
613 20 828 830 832
614 26 827 828 829
615 20 827 828 830
616 20 826 825 832
617 20 826 827 828
618 20 825 826 827
619 20 825 832 830
620 15 824 825 826
621 15 824 825 832
622 13 823 824 825
623 21 822 823 824
624 28 821 820 822
625 18 820 819 833
626 14 820 822 823
627 25 819 820 821
628 22 819 820 822
629 18 818 819 820
630 20 818 819 833
631 23 817 816 818
632 28 817 848 847
633 22 817 848 867
634 28 817 849 850
635 22 817 849 851
636 17 816 817 848
637 17 816 817 849
638 20 816 818 819
639 20 815 814 833
640 23 815 816 817
641 20 815 816 818
642 20 814 815 816
643 20 814 833 819
644 23 813 814 815
645 23 813 814 833
646 22 803 801 813
647 25 802 801 803
648 28 802 801 813
649 18 801 803 804
650 17 801 813 814
651 28 800 799 813
652 18 799 798 803
653 17 799 813 814
654 16 799 813 801
655 25 798 799 800
656 22 798 799 813
657 18 798 803 801
658 20 798 803 804
659 18 797 798 799
660 20 797 798 803
661 20 796 795 804
662 20 796 797 798
663 20 795 796 797
664 20 795 804 803
665 27 794 793 805
666 27 794 795 796
667 27 794 795 804
668 19 793 794 795
669 20 793 805 806
670 27 792 793 794
671 20 792 793 805
672 20 791 790 806
673 20 791 792 793
674 20 790 791 792
675 20 790 806 805
676 25 789 788 790
677 18 788 790 791
678 18 788 790 806
679 18 787 806 805
680 18 787 806 790
681 16 787 773 788
682 25 786 787 806
683 23 773 772 774
684 28 773 787 786
685 22 773 787 806
686 28 773 788 789
687 22 773 788 790
688 17 772 773 787
689 17 772 773 788
690 20 772 774 775
691 23 771 772 773
692 20 771 772 774
693 20 770 769 775
694 20 770 771 772
695 20 769 770 771
696 20 769 775 774
697 27 768 767 776
698 27 768 769 770
699 27 768 769 775
700 19 767 768 769
701 20 767 776 777
702 27 766 767 768
703 20 766 767 776
704 20 765 764 777
705 20 765 766 767
706 20 764 765 766
707 20 764 777 776
708 23 763 764 765
709 23 763 764 777
710 22 753 751 763
711 25 752 751 753
712 28 752 751 763
713 18 751 753 754
714 17 751 763 764
715 28 750 749 763
716 18 749 748 753
717 17 749 763 764
718 16 749 763 751
719 25 748 749 750
720 22 748 749 763
721 18 748 753 751
722 20 748 753 754
723 18 747 748 749
724 20 747 748 753
725 20 746 745 754
726 20 746 747 748
727 20 745 746 747
728 20 745 754 753
729 27 744 743 755
730 27 744 745 746
731 27 744 745 754
732 19 743 744 745
733 20 743 755 756
734 27 742 743 744
735 20 742 743 755
736 20 741 740 756
737 20 741 742 743
738 20 740 741 742
739 20 740 756 755
740 25 739 738 740
741 18 738 740 741
742 18 738 740 756
743 18 737 756 755
744 18 737 756 740
745 16 737 723 738
746 25 736 737 756
747 23 723 722 724
748 28 723 737 736
749 22 723 737 756
750 28 723 738 739
751 22 723 738 740
752 17 722 723 737
753 17 722 723 738
754 20 722 724 725
755 23 721 722 723
756 20 721 722 724
757 20 720 719 725
758 20 720 721 722
759 20 719 720 721
760 20 719 725 724
761 27 718 717 726
762 27 718 719 720
763 27 718 719 725
764 19 717 718 719
765 20 717 726 727
766 27 716 717 718
767 20 716 717 726
768 20 715 714 727
769 20 715 716 717
770 20 714 715 716
771 20 714 727 726
772 23 713 714 715
773 23 713 714 727
774 22 703 701 713
775 25 702 701 703
776 28 702 701 713
777 18 701 703 704
778 17 701 713 714
779 28 700 699 713
780 18 699 698 703
781 17 699 713 714
782 16 699 713 701
783 25 698 699 700
784 22 698 699 713
785 18 698 703 701
786 20 698 703 704
787 18 697 698 699
788 20 697 698 703
789 20 696 695 704
790 20 696 697 698
791 20 695 696 697
792 20 695 704 703
793 27 694 693 705
794 27 694 695 696
795 27 694 695 704
796 19 693 694 695
797 20 693 705 706
798 27 692 693 694
799 20 692 693 705
800 20 691 690 706
801 20 691 692 693
802 20 690 691 692
803 20 690 706 705
804 25 689 688 690
805 18 688 690 691
806 18 688 690 706
807 18 687 706 705
808 18 687 706 690
809 16 687 673 688
810 25 686 687 706
811 23 673 672 674
812 28 673 687 686
813 22 673 687 706
814 28 673 688 689
815 22 673 688 690
816 17 672 673 687
817 17 672 673 688
818 20 672 674 675
819 23 671 672 673
820 20 671 672 674
821 20 670 669 675
822 20 670 671 672
823 20 669 670 671
824 20 669 675 674
825 27 668 667 676
826 27 668 669 670
827 27 668 669 675
828 19 667 668 669
829 20 667 676 677
830 27 666 667 668
831 20 666 667 676
832 20 665 664 677
833 20 665 666 667
834 20 664 665 666
835 20 664 677 676
836 23 663 664 665
837 23 663 664 677
838 22 653 651 663
839 25 652 651 653
840 28 652 651 663
841 18 651 653 654
842 17 651 663 664
843 28 650 649 663
844 18 649 648 653
845 17 649 663 664
846 16 649 663 651
847 25 648 649 650
848 22 648 649 663
849 18 648 653 651
850 20 648 653 654
851 18 647 648 649
852 20 647 648 653
853 20 646 645 654
854 20 646 647 648
855 20 645 646 647
856 20 645 654 653
857 27 644 643 655
858 27 644 645 646
859 27 644 645 654
860 19 643 644 645
861 20 643 655 656
862 27 642 643 644
863 20 642 643 655
864 20 641 640 656
865 20 641 642 643
866 20 640 641 642
867 20 640 656 655
868 25 639 638 640
869 18 638 640 641
870 18 638 640 656
871 18 637 656 655
872 18 637 656 640
873 16 637 623 638
874 25 636 637 656
875 23 623 622 624
876 28 623 637 636
877 22 623 637 656
878 28 623 638 639
879 22 623 638 640
880 17 622 623 637
881 17 622 623 638
882 20 622 624 625
883 23 621 622 623
884 20 621 622 624
885 20 620 619 625
886 20 620 621 622
887 20 619 620 621
888 20 619 625 624
889 27 618 617 626
890 27 618 619 620
891 27 618 619 625
892 19 617 618 619
893 20 617 626 627
894 27 616 617 618
895 20 616 617 626
896 20 615 614 627
897 20 615 616 617
898 20 614 615 616
899 20 614 627 626
900 23 613 614 615
901 23 613 614 627
902 22 603 601 613
903 25 602 601 603
904 28 602 601 613
905 18 601 603 604
906 17 601 613 614
907 28 600 599 613
908 18 599 598 603
909 17 599 613 614
910 16 599 613 601
911 25 598 599 600
912 22 598 599 613
913 18 598 603 601
914 20 598 603 604
915 18 597 598 599
916 20 597 598 603
917 20 596 595 604
918 20 596 597 598
919 20 595 596 597
920 20 595 604 603
921 27 594 593 605
922 27 594 595 596
923 27 594 595 604
924 19 593 594 595
925 20 593 605 606
926 27 592 593 594
927 20 592 593 605
928 20 591 590 606
929 20 591 592 593
930 20 590 591 592
931 20 590 606 605
932 25 589 588 590
933 18 588 590 591
934 18 588 590 606
935 18 587 606 605
936 18 587 606 590
937 16 587 573 588
938 25 586 587 606
939 23 573 572 574
940 28 573 587 586
941 22 573 587 606
942 28 573 588 589
943 22 573 588 590
944 17 572 573 587
945 17 572 573 588
946 20 572 574 575
947 23 571 572 573
948 20 571 572 574
949 20 570 569 575
950 20 570 571 572
951 20 569 570 571
952 20 569 575 574
953 27 568 567 576
954 27 568 569 570
955 27 568 569 575
956 19 567 568 569
957 20 567 576 577
958 27 566 567 568
959 20 566 567 576
960 20 565 564 577
961 20 565 566 567
962 20 564 565 566
963 20 564 577 576
964 23 563 564 565
965 23 563 564 577
966 22 553 551 563
967 25 552 551 553
968 28 552 551 563
969 18 551 553 554
970 17 551 563 564
971 28 550 549 563
972 18 549 548 553
973 17 549 563 564
974 16 549 563 551
975 25 548 549 550
976 22 548 549 563
977 18 548 553 551
978 20 548 553 554
979 18 547 548 549
980 20 547 548 553
981 20 546 545 554
982 20 546 547 548
983 20 545 546 547
984 20 545 554 553
985 27 544 543 555
986 27 544 545 546
987 27 544 545 554
988 19 543 544 545
989 20 543 555 556
990 27 542 543 544
991 20 542 543 555
992 20 541 540 556
993 20 541 542 543
994 20 540 541 542
995 20 540 556 555
996 25 539 538 540
997 18 538 540 541
998 18 538 540 556
999 18 537 556 555
1000 18 537 556 540
1001 16 537 506 538
1002 25 536 537 556
1003 26 520 519 521
1004 26 518 517 519
1005 26 517 519 520
1006 20 517 519 521
1007 26 516 517 518
1008 20 516 517 519
1009 20 515 514 521
1010 20 515 516 517
1011 20 514 515 516
1012 20 514 521 519
1013 15 513 514 515
1014 15 513 514 521
1015 13 512 513 514
1016 21 511 512 513
1017 28 510 509 511
1018 18 509 508 522
1019 14 509 511 512
1020 25 508 509 510
1021 22 508 509 511
1022 18 507 508 509
1023 20 507 508 522
1024 23 506 505 507
1025 28 506 537 536
1026 22 506 537 556
1027 28 506 538 539
1028 22 506 538 540
1029 17 505 506 537
1030 17 505 506 538
1031 20 505 507 508
1032 20 504 503 522
1033 23 504 505 506
1034 20 504 505 507
1035 20 503 504 505
1036 20 503 522 508
1037 23 502 503 504
1038 23 502 503 522
1039 22 492 490 502
1040 25 491 490 492
1041 28 491 490 502
1042 18 490 492 493
1043 17 490 502 503
1044 28 489 488 502
1045 18 488 487 492
1046 17 488 502 503
1047 16 488 502 490
1048 25 487 488 489
1049 22 487 488 502
1050 18 487 492 490
1051 20 487 492 493
1052 18 486 487 488
1053 20 486 487 492
1054 20 485 484 493
1055 20 485 486 487
1056 20 484 485 486
1057 20 484 493 492
1058 27 483 482 494
1059 27 483 484 485
1060 27 483 484 493
1061 19 482 483 484
1062 20 482 494 495
1063 27 481 482 483
1064 20 481 482 494
1065 20 480 479 495
1066 20 480 481 482
1067 20 479 480 481
1068 20 479 495 494
1069 25 478 477 479
1070 18 477 479 480
1071 18 477 479 495
1072 18 476 495 494
1073 18 476 495 479
1074 16 476 460 477
1075 25 475 476 495
1076 23 460 459 461
1077 28 460 476 475
1078 22 460 476 495
1079 28 460 477 478
1080 22 460 477 479
1081 17 459 460 476
1082 17 459 460 477
1083 20 459 461 462
1084 23 458 459 460
1085 20 458 459 461
1086 20 457 456 462
1087 20 457 458 459
1088 20 456 457 458
1089 20 456 462 461
1090 27 455 454 463
1091 27 455 456 457
1092 27 455 456 462
1093 19 454 455 456
1094 20 454 463 464
1095 27 453 454 455
1096 20 453 454 463
1097 20 452 451 464
1098 20 452 453 454
1099 20 451 452 453
1100 20 451 464 463
1101 24 450 451 452
1102 24 450 451 464
1103 24 1333 1332 1334
1104 20 1332 1334 1335
1105 24 1331 1332 1333
1106 20 1331 1332 1334
1107 20 1330 1329 1335
1108 20 1330 1331 1332
1109 20 1329 1330 1331
1110 20 1329 1335 1334
1111 27 1328 1327 1336
1112 27 1328 1329 1330
1113 27 1328 1329 1335
1114 19 1327 1328 1329
1115 20 1327 1336 1337
1116 27 1326 1327 1328
1117 20 1326 1327 1336
1118 20 1325 1324 1337
1119 20 1325 1326 1327
1120 20 1324 1325 1326
1121 20 1324 1337 1336
1122 23 1323 1324 1325
1123 23 1323 1324 1337
1124 22 1313 1311 1323
1125 25 1312 1311 1313
1126 28 1312 1311 1323
1127 18 1311 1313 1314
1128 17 1311 1323 1324
1129 28 1310 1309 1323
1130 18 1309 1308 1313
1131 17 1309 1323 1324
1132 16 1309 1323 1311
1133 25 1308 1309 1310
1134 22 1308 1309 1323
1135 18 1308 1313 1311
1136 20 1308 1313 1314
1137 18 1307 1308 1309
1138 20 1307 1308 1313
1139 20 1306 1305 1314
1140 20 1306 1307 1308
1141 20 1305 1306 1307
1142 20 1305 1314 1313
1143 27 1304 1303 1315
1144 27 1304 1305 1306
1145 27 1304 1305 1314
1146 19 1303 1304 1305
1147 20 1303 1315 1316
1148 27 1302 1303 1304
1149 20 1302 1303 1315
1150 20 1301 1300 1316
1151 20 1301 1302 1303
1152 20 1300 1301 1302
1153 20 1300 1316 1315
1154 25 1299 1298 1300
1155 18 1298 1300 1301
1156 18 1298 1300 1316
1157 18 1297 1316 1315
1158 18 1297 1316 1300
1159 16 1297 1266 1298
1160 25 1296 1297 1316
1161 26 1280 1279 1281
1162 26 1278 1277 1279
1163 26 1277 1279 1280
1164 20 1277 1279 1281
1165 26 1276 1277 1278
1166 20 1276 1277 1279
1167 20 1275 1274 1281
1168 20 1275 1276 1277
1169 20 1274 1275 1276
1170 20 1274 1281 1279
1171 15 1273 1274 1275
1172 15 1273 1274 1281
1173 13 1272 1273 1274
1174 21 1271 1272 1273
1175 28 1270 1269 1271
1176 18 1269 1268 1282
1177 14 1269 1271 1272
1178 25 1268 1269 1270
1179 22 1268 1269 1271
1180 18 1267 1268 1269
1181 20 1267 1268 1282
1182 23 1266 1265 1267
1183 28 1266 1297 1296
1184 22 1266 1297 1316
1185 28 1266 1298 1299
1186 22 1266 1298 1300
1187 17 1265 1266 1297
1188 17 1265 1266 1298
1189 20 1265 1267 1268
1190 20 1264 1263 1282
1191 23 1264 1265 1266
1192 20 1264 1265 1267
1193 20 1263 1264 1265
1194 20 1263 1282 1268
1195 23 1262 1263 1264
1196 23 1262 1263 1282
1197 22 1252 1250 1262
1198 25 1251 1250 1252
1199 28 1251 1250 1262
1200 18 1250 1252 1253
1201 17 1250 1262 1263
1202 28 1249 1248 1262
1203 18 1248 1247 1252
1204 17 1248 1262 1263
1205 16 1248 1262 1250
1206 25 1247 1248 1249
1207 22 1247 1248 1262
1208 18 1247 1252 1250
1209 20 1247 1252 1253
1210 18 1246 1247 1248
1211 20 1246 1247 1252
1212 20 1245 1244 1253
1213 20 1245 1246 1247
1214 20 1244 1245 1246
1215 20 1244 1253 1252
1216 27 1243 1242 1254
1217 27 1243 1244 1245
1218 27 1243 1244 1253
1219 19 1242 1243 1244
1220 20 1242 1254 1255
1221 27 1241 1242 1243
1222 20 1241 1242 1254
1223 20 1240 1239 1255
1224 20 1240 1241 1242
1225 20 1239 1240 1241
1226 20 1239 1255 1254
1227 25 1238 1237 1239
1228 18 1237 1239 1240
1229 18 1237 1239 1255
1230 18 1236 1255 1254
1231 18 1236 1255 1239
1232 16 1236 1222 1237
1233 25 1235 1236 1255
1234 23 1222 1221 1223
1235 28 1222 1236 1235
1236 22 1222 1236 1255
1237 28 1222 1237 1238
1238 22 1222 1237 1239
1239 17 1221 1222 1236
1240 17 1221 1222 1237
1241 20 1221 1223 1224
1242 23 1220 1221 1222
1243 20 1220 1221 1223
1244 20 1219 1218 1224
1245 20 1219 1220 1221
1246 20 1218 1219 1220
1247 20 1218 1224 1223
1248 27 1217 1216 1225
1249 27 1217 1218 1219
1250 27 1217 1218 1224
1251 19 1216 1217 1218
1252 20 1216 1225 1226
1253 27 1215 1216 1217
1254 20 1215 1216 1225
1255 20 1214 1213 1226
1256 20 1214 1215 1216
1257 20 1213 1214 1215
1258 20 1213 1226 1225
1259 23 1212 1213 1214
1260 23 1212 1213 1226
1261 22 1202 1200 1212
1262 25 1201 1200 1202
1263 28 1201 1200 1212
1264 18 1200 1202 1203
1265 17 1200 1212 1213
1266 28 1199 1198 1212
1267 18 1198 1197 1202
1268 17 1198 1212 1213
1269 16 1198 1212 1200
1270 25 1197 1198 1199
1271 22 1197 1198 1212
1272 18 1197 1202 1200
1273 20 1197 1202 1203
1274 18 1196 1197 1198
1275 20 1196 1197 1202
1276 20 1195 1194 1203
1277 20 1195 1196 1197
1278 20 1194 1195 1196
1279 20 1194 1203 1202
1280 27 1193 1192 1204
1281 27 1193 1194 1195
1282 27 1193 1194 1203
1283 19 1192 1193 1194
1284 20 1192 1204 1205
1285 27 1191 1192 1193
1286 20 1191 1192 1204
1287 20 1190 1189 1205
1288 20 1190 1191 1192
1289 20 1189 1190 1191
1290 20 1189 1205 1204
1291 25 1188 1187 1189
1292 18 1187 1189 1190
1293 18 1187 1189 1205
1294 18 1186 1205 1204
1295 18 1186 1205 1189
1296 16 1186 1172 1187
1297 25 1185 1186 1205
1298 23 1172 1171 1173
1299 28 1172 1186 1185
1300 22 1172 1186 1205
1301 28 1172 1187 1188
1302 22 1172 1187 1189
1303 17 1171 1172 1186
1304 17 1171 1172 1187
1305 20 1171 1173 1174
1306 23 1170 1171 1172
1307 20 1170 1171 1173
1308 20 1169 1168 1174
1309 20 1169 1170 1171
1310 20 1168 1169 1170
1311 20 1168 1174 1173
1312 27 1167 1166 1175
1313 27 1167 1168 1169
1314 27 1167 1168 1174
1315 19 1166 1167 1168
1316 20 1166 1175 1176
1317 27 1165 1166 1167
1318 20 1165 1166 1175
1319 20 1164 1163 1176
1320 20 1164 1165 1166
1321 20 1163 1164 1165
1322 20 1163 1176 1175
1323 23 1162 1163 1164
1324 23 1162 1163 1176
1325 22 1152 1150 1162
1326 25 1151 1150 1152
1327 28 1151 1150 1162
1328 18 1150 1152 1153
1329 17 1150 1162 1163
1330 28 1149 1148 1162
1331 18 1148 1147 1152
1332 17 1148 1162 1163
1333 16 1148 1162 1150
1334 25 1147 1148 1149
1335 22 1147 1148 1162
1336 18 1147 1152 1150
1337 20 1147 1152 1153
1338 18 1146 1147 1148
1339 20 1146 1147 1152
1340 20 1145 1144 1153
1341 20 1145 1146 1147
1342 20 1144 1145 1146
1343 20 1144 1153 1152
1344 27 1143 1142 1154
1345 27 1143 1144 1145
1346 27 1143 1144 1153
1347 19 1142 1143 1144
1348 20 1142 1154 1155
1349 27 1141 1142 1143
1350 20 1141 1142 1154
1351 20 1140 1139 1155
1352 20 1140 1141 1142
1353 20 1139 1140 1141
1354 20 1139 1155 1154
1355 25 1138 1137 1139
1356 18 1137 1139 1140
1357 18 1137 1139 1155
1358 18 1136 1155 1154
1359 18 1136 1155 1139
1360 16 1136 1122 1137
1361 25 1135 1136 1155
1362 23 1122 1121 1123
1363 28 1122 1136 1135
1364 22 1122 1136 1155
1365 28 1122 1137 1138
1366 22 1122 1137 1139
1367 17 1121 1122 1136
1368 17 1121 1122 1137
1369 20 1121 1123 1124
1370 23 1120 1121 1122
1371 20 1120 1121 1123
1372 20 1119 1118 1124
1373 20 1119 1120 1121
1374 20 1118 1119 1120
1375 20 1118 1124 1123
1376 27 1117 1116 1125
1377 27 1117 1118 1119
1378 27 1117 1118 1124
1379 19 1116 1117 1118
1380 20 1116 1125 1126
1381 27 1115 1116 1117
1382 20 1115 1116 1125
1383 20 1114 1113 1126
1384 20 1114 1115 1116
1385 20 1113 1114 1115
1386 20 1113 1126 1125
1387 23 1112 1113 1114
1388 23 1112 1113 1126
1389 22 1102 1100 1112
1390 25 1101 1100 1102
1391 28 1101 1100 1112
1392 18 1100 1102 1103
1393 17 1100 1112 1113
1394 28 1099 1098 1112
1395 18 1098 1097 1102
1396 17 1098 1112 1113
1397 16 1098 1112 1100
1398 25 1097 1098 1099
1399 22 1097 1098 1112
1400 18 1097 1102 1100
1401 20 1097 1102 1103
1402 18 1096 1097 1098
1403 20 1096 1097 1102
1404 20 1095 1094 1103
1405 20 1095 1096 1097
1406 20 1094 1095 1096
1407 20 1094 1103 1102
1408 27 1093 1092 1104
1409 27 1093 1094 1095
1410 27 1093 1094 1103
1411 19 1092 1093 1094
1412 20 1092 1104 1105
1413 27 1091 1092 1093
1414 20 1091 1092 1104
1415 20 1090 1089 1105
1416 20 1090 1091 1092
1417 20 1089 1090 1091
1418 20 1089 1105 1104
1419 25 1088 1087 1089
1420 18 1087 1089 1090
1421 18 1087 1089 1105
1422 18 1086 1105 1104
1423 18 1086 1105 1089
1424 16 1086 1072 1087
1425 25 1085 1086 1105
1426 23 1072 1071 1073
1427 28 1072 1086 1085
1428 22 1072 1086 1105
1429 28 1072 1087 1088
1430 22 1072 1087 1089
1431 17 1071 1072 1086
1432 17 1071 1072 1087
1433 20 1071 1073 1074
1434 23 1070 1071 1072
1435 20 1070 1071 1073
1436 20 1069 1068 1074
1437 20 1069 1070 1071
1438 20 1068 1069 1070
1439 20 1068 1074 1073
1440 27 1067 1066 1075
1441 27 1067 1068 1069
1442 27 1067 1068 1074
1443 19 1066 1067 1068
1444 20 1066 1075 1076
1445 27 1065 1066 1067
1446 20 1065 1066 1075
1447 20 1064 1063 1076
1448 20 1064 1065 1066
1449 20 1063 1064 1065
1450 20 1063 1076 1075
1451 23 1062 1063 1064
1452 23 1062 1063 1076
1453 22 1052 1050 1062
1454 25 1051 1050 1052
1455 28 1051 1050 1062
1456 18 1050 1052 1053
1457 17 1050 1062 1063
1458 28 1049 1048 1062
1459 18 1048 1047 1052
1460 17 1048 1062 1063
1461 16 1048 1062 1050
1462 25 1047 1048 1049
1463 22 1047 1048 1062
1464 18 1047 1052 1050
1465 20 1047 1052 1053
1466 18 1046 1047 1048
1467 20 1046 1047 1052
1468 20 1045 1044 1053
1469 20 1045 1046 1047
1470 20 1044 1045 1046
1471 20 1044 1053 1052
1472 27 1043 1042 1054
1473 27 1043 1044 1045
1474 27 1043 1044 1053
1475 19 1042 1043 1044
1476 20 1042 1054 1055
1477 27 1041 1042 1043
1478 20 1041 1042 1054
1479 20 1040 1039 1055
1480 20 1040 1041 1042
1481 20 1039 1040 1041
1482 20 1039 1055 1054
1483 25 1038 1037 1039
1484 18 1037 1039 1040
1485 18 1037 1039 1055
1486 18 1036 1055 1054
1487 18 1036 1055 1039
1488 16 1036 1022 1037
1489 25 1035 1036 1055
1490 23 1022 1021 1023
1491 28 1022 1036 1035
1492 22 1022 1036 1055
1493 28 1022 1037 1038
1494 22 1022 1037 1039
1495 17 1021 1022 1036
1496 17 1021 1022 1037
1497 20 1021 1023 1024
1498 23 1020 1021 1022
1499 20 1020 1021 1023
1500 20 1019 1018 1024
1501 20 1019 1020 1021
1502 20 1018 1019 1020
1503 20 1018 1024 1023
1504 27 1017 1016 1025
1505 27 1017 1018 1019
1506 27 1017 1018 1024
1507 19 1016 1017 1018
1508 20 1016 1025 1026
1509 27 1015 1016 1017
1510 20 1015 1016 1025
1511 20 1014 1013 1026
1512 20 1014 1015 1016
1513 20 1013 1014 1015
1514 20 1013 1026 1025
1515 23 1012 1013 1014
1516 23 1012 1013 1026
1517 22 1002 1000 1012
1518 25 1001 1000 1002
1519 28 1001 1000 1012
1520 18 1000 1002 1003
1521 17 1000 1012 1013
1522 28 999 998 1012
1523 18 998 997 1002
1524 17 998 1012 1013
1525 16 998 1012 1000
1526 25 997 998 999
1527 22 997 998 1012
1528 18 997 1002 1000
1529 20 997 1002 1003
1530 18 996 997 998
1531 20 996 997 1002
1532 20 995 994 1003
1533 20 995 996 997
1534 20 994 995 996
1535 20 994 1003 1002
1536 27 993 992 1004
1537 27 993 994 995
1538 27 993 994 1003
1539 19 992 993 994
1540 20 992 1004 1005
1541 27 991 992 993
1542 20 991 992 1004
1543 20 990 989 1005
1544 20 990 991 992
1545 20 989 990 991
1546 20 989 1005 1004
1547 25 988 987 989
1548 18 987 989 990
1549 18 987 989 1005
1550 18 986 1005 1004
1551 18 986 1005 989
1552 16 986 955 987
1553 25 985 986 1005
1554 26 969 968 970
1555 26 967 966 968
1556 26 966 968 969
1557 20 966 968 970
1558 26 965 966 967
1559 20 965 966 968
1560 20 964 963 970
1561 20 964 965 966
1562 20 963 964 965
1563 20 963 970 968
1564 15 962 963 964
1565 15 962 963 970
1566 13 961 962 963
1567 21 960 961 962
1568 28 959 958 960
1569 18 958 957 971
1570 14 958 960 961
1571 25 957 958 959
1572 22 957 958 960
1573 18 956 957 958
1574 20 956 957 971
1575 23 955 954 956
1576 28 955 986 985
1577 22 955 986 1005
1578 28 955 987 988
1579 22 955 987 989
1580 17 954 955 986
1581 17 954 955 987
1582 20 954 956 957
1583 20 953 952 971
1584 23 953 954 955
1585 20 953 954 956
1586 20 952 953 954
1587 20 952 971 957
1588 23 951 952 953
1589 23 951 952 971
1590 22 941 939 951
1591 25 940 939 941
1592 28 940 939 951
1593 18 939 941 942
1594 17 939 951 952
1595 28 938 937 951
1596 18 937 936 941
1597 17 937 951 952
1598 16 937 951 939
1599 25 936 937 938
1600 22 936 937 951
1601 18 936 941 939
1602 20 936 941 942
1603 18 935 936 937
1604 20 935 936 941
1605 20 934 933 942
1606 20 934 935 936
1607 20 933 934 935
1608 20 933 942 941
1609 27 932 931 943
1610 27 932 933 934
1611 27 932 933 942
1612 19 931 932 933
1613 20 931 943 944
1614 27 930 931 932
1615 20 930 931 943
1616 20 929 928 944
1617 20 929 930 931
1618 20 928 929 930
1619 20 928 944 943
1620 25 927 926 928
1621 18 926 928 929
1622 18 926 928 944
1623 18 925 944 943
1624 18 925 944 928
1625 16 925 909 926
1626 25 924 925 944
1627 23 909 908 910
1628 28 909 925 924
1629 22 909 925 944
1630 28 909 926 927
1631 22 909 926 928
1632 17 908 909 925
1633 17 908 909 926
1634 20 908 910 911
1635 23 907 908 909
1636 20 907 908 910
1637 20 906 905 911
1638 20 906 907 908
1639 20 905 906 907
1640 20 905 911 910
1641 27 904 903 912
1642 27 904 905 906
1643 27 904 905 911
1644 19 903 904 905
1645 20 903 912 913
1646 27 902 903 904
1647 20 902 903 912
1648 20 901 900 913
1649 20 901 902 903
1650 20 900 901 902
1651 20 900 913 912
1652 24 899 900 901
1653 24 899 900 913
1654 24 1782 1781 1783
1655 20 1781 1783 1784
1656 24 1780 1781 1782
1657 20 1780 1781 1783
1658 20 1779 1778 1784
1659 20 1779 1780 1781
1660 20 1778 1779 1780
1661 20 1778 1784 1783
1662 27 1777 1776 1785
1663 27 1777 1778 1779
1664 27 1777 1778 1784
1665 19 1776 1777 1778
1666 20 1776 1785 1786
1667 27 1775 1776 1777
1668 20 1775 1776 1785
1669 20 1774 1773 1786
1670 20 1774 1775 1776
1671 20 1773 1774 1775
1672 20 1773 1786 1785
1673 23 1772 1773 1774
1674 23 1772 1773 1786
1675 22 1762 1760 1772
1676 25 1761 1760 1762
1677 28 1761 1760 1772
1678 18 1760 1762 1763
1679 17 1760 1772 1773
1680 28 1759 1758 1772
1681 18 1758 1757 1762
1682 17 1758 1772 1773
1683 16 1758 1772 1760
1684 25 1757 1758 1759
1685 22 1757 1758 1772
1686 18 1757 1762 1760
1687 20 1757 1762 1763
1688 18 1756 1757 1758
1689 20 1756 1757 1762
1690 20 1755 1754 1763
1691 20 1755 1756 1757
1692 20 1754 1755 1756
1693 20 1754 1763 1762
1694 27 1753 1752 1764
1695 27 1753 1754 1755
1696 27 1753 1754 1763
1697 19 1752 1753 1754
1698 20 1752 1764 1765
1699 27 1751 1752 1753
1700 20 1751 1752 1764
1701 20 1750 1749 1765
1702 20 1750 1751 1752
1703 20 1749 1750 1751
1704 20 1749 1765 1764
1705 25 1748 1747 1749
1706 18 1747 1749 1750
1707 18 1747 1749 1765
1708 18 1746 1765 1764
1709 18 1746 1765 1749
1710 16 1746 1715 1747
1711 25 1745 1746 1765
1712 26 1729 1728 1730
1713 26 1727 1726 1728
1714 26 1726 1728 1729
1715 20 1726 1728 1730
1716 26 1725 1726 1727
1717 20 1725 1726 1728
1718 20 1724 1723 1730
1719 20 1724 1725 1726
1720 20 1723 1724 1725
1721 20 1723 1730 1728
1722 15 1722 1723 1724
1723 15 1722 1723 1730
1724 13 1721 1722 1723
1725 21 1720 1721 1722
1726 28 1719 1718 1720
1727 18 1718 1717 1731
1728 14 1718 1720 1721
1729 25 1717 1718 1719
1730 22 1717 1718 1720
1731 18 1716 1717 1718
1732 20 1716 1717 1731
1733 23 1715 1714 1716
1734 28 1715 1746 1745
1735 22 1715 1746 1765
1736 28 1715 1747 1748
1737 22 1715 1747 1749
1738 17 1714 1715 1746
1739 17 1714 1715 1747
1740 20 1714 1716 1717
1741 20 1713 1712 1731
1742 23 1713 1714 1715
1743 20 1713 1714 1716
1744 20 1712 1713 1714
1745 20 1712 1731 1717
1746 23 1711 1712 1713
1747 23 1711 1712 1731
1748 22 1701 1699 1711
1749 25 1700 1699 1701
1750 28 1700 1699 1711
1751 18 1699 1701 1702
1752 17 1699 1711 1712
1753 28 1698 1697 1711
1754 18 1697 1696 1701
1755 17 1697 1711 1712
1756 16 1697 1711 1699
1757 25 1696 1697 1698
1758 22 1696 1697 1711
1759 18 1696 1701 1699
1760 20 1696 1701 1702
1761 18 1695 1696 1697
1762 20 1695 1696 1701
1763 20 1694 1693 1702
1764 20 1694 1695 1696
1765 20 1693 1694 1695
1766 20 1693 1702 1701
1767 27 1692 1691 1703
1768 27 1692 1693 1694
1769 27 1692 1693 1702
1770 19 1691 1692 1693
1771 20 1691 1703 1704
1772 27 1690 1691 1692
1773 20 1690 1691 1703
1774 20 1689 1688 1704
1775 20 1689 1690 1691
1776 20 1688 1689 1690
1777 20 1688 1704 1703
1778 25 1687 1686 1688
1779 18 1686 1688 1689
1780 18 1686 1688 1704
1781 18 1685 1704 1703
1782 18 1685 1704 1688
1783 16 1685 1671 1686
1784 25 1684 1685 1704
1785 23 1671 1670 1672
1786 28 1671 1685 1684
1787 22 1671 1685 1704
1788 28 1671 1686 1687
1789 22 1671 1686 1688
1790 17 1670 1671 1685
1791 17 1670 1671 1686
1792 20 1670 1672 1673
1793 23 1669 1670 1671
1794 20 1669 1670 1672
1795 20 1668 1667 1673
1796 20 1668 1669 1670
1797 20 1667 1668 1669
1798 20 1667 1673 1672
1799 27 1666 1665 1674
1800 27 1666 1667 1668
1801 27 1666 1667 1673
1802 19 1665 1666 1667
1803 20 1665 1674 1675
1804 27 1664 1665 1666
1805 20 1664 1665 1674
1806 20 1663 1662 1675
1807 20 1663 1664 1665
1808 20 1662 1663 1664
1809 20 1662 1675 1674
1810 23 1661 1662 1663
1811 23 1661 1662 1675
1812 22 1651 1649 1661
1813 25 1650 1649 1651
1814 28 1650 1649 1661
1815 18 1649 1651 1652
1816 17 1649 1661 1662
1817 28 1648 1647 1661
1818 18 1647 1646 1651
1819 17 1647 1661 1662
1820 16 1647 1661 1649
1821 25 1646 1647 1648
1822 22 1646 1647 1661
1823 18 1646 1651 1649
1824 20 1646 1651 1652
1825 18 1645 1646 1647
1826 20 1645 1646 1651
1827 20 1644 1643 1652
1828 20 1644 1645 1646
1829 20 1643 1644 1645
1830 20 1643 1652 1651
1831 27 1642 1641 1653
1832 27 1642 1643 1644
1833 27 1642 1643 1652
1834 19 1641 1642 1643
1835 20 1641 1653 1654
1836 27 1640 1641 1642
1837 20 1640 1641 1653
1838 20 1639 1638 1654
1839 20 1639 1640 1641
1840 20 1638 1639 1640
1841 20 1638 1654 1653
1842 25 1637 1636 1638
1843 18 1636 1638 1639
1844 18 1636 1638 1654
1845 18 1635 1654 1653
1846 18 1635 1654 1638
1847 16 1635 1621 1636
1848 25 1634 1635 1654
1849 23 1621 1620 1622
1850 28 1621 1635 1634
1851 22 1621 1635 1654
1852 28 1621 1636 1637
1853 22 1621 1636 1638
1854 17 1620 1621 1635
1855 17 1620 1621 1636
1856 20 1620 1622 1623
1857 23 1619 1620 1621
1858 20 1619 1620 1622
1859 20 1618 1617 1623
1860 20 1618 1619 1620
1861 20 1617 1618 1619
1862 20 1617 1623 1622
1863 27 1616 1615 1624
1864 27 1616 1617 1618
1865 27 1616 1617 1623
1866 19 1615 1616 1617
1867 20 1615 1624 1625
1868 27 1614 1615 1616
1869 20 1614 1615 1624
1870 20 1613 1612 1625
1871 20 1613 1614 1615
1872 20 1612 1613 1614
1873 20 1612 1625 1624
1874 23 1611 1612 1613
1875 23 1611 1612 1625
1876 22 1601 1599 1611
1877 25 1600 1599 1601
1878 28 1600 1599 1611
1879 18 1599 1601 1602
1880 17 1599 1611 1612
1881 28 1598 1597 1611
1882 18 1597 1596 1601
1883 17 1597 1611 1612
1884 16 1597 1611 1599
1885 25 1596 1597 1598
1886 22 1596 1597 1611
1887 18 1596 1601 1599
1888 20 1596 1601 1602
1889 18 1595 1596 1597
1890 20 1595 1596 1601
1891 20 1594 1593 1602
1892 20 1594 1595 1596
1893 20 1593 1594 1595
1894 20 1593 1602 1601
1895 27 1592 1591 1603
1896 27 1592 1593 1594
1897 27 1592 1593 1602
1898 19 1591 1592 1593
1899 20 1591 1603 1604
1900 27 1590 1591 1592
1901 20 1590 1591 1603
1902 20 1589 1588 1604
1903 20 1589 1590 1591
1904 20 1588 1589 1590
1905 20 1588 1604 1603
1906 25 1587 1586 1588
1907 18 1586 1588 1589
1908 18 1586 1588 1604
1909 18 1585 1604 1603
1910 18 1585 1604 1588
1911 16 1585 1571 1586
1912 25 1584 1585 1604
1913 23 1571 1570 1572
1914 28 1571 1585 1584
1915 22 1571 1585 1604
1916 28 1571 1586 1587
1917 22 1571 1586 1588
1918 17 1570 1571 1585
1919 17 1570 1571 1586
1920 20 1570 1572 1573
1921 23 1569 1570 1571
1922 20 1569 1570 1572
1923 20 1568 1567 1573
1924 20 1568 1569 1570
1925 20 1567 1568 1569
1926 20 1567 1573 1572
1927 27 1566 1565 1574
1928 27 1566 1567 1568
1929 27 1566 1567 1573
1930 19 1565 1566 1567
1931 20 1565 1574 1575
1932 27 1564 1565 1566
1933 20 1564 1565 1574
1934 20 1563 1562 1575
1935 20 1563 1564 1565
1936 20 1562 1563 1564
1937 20 1562 1575 1574
1938 23 1561 1562 1563
1939 23 1561 1562 1575
1940 22 1551 1549 1561
1941 25 1550 1549 1551
1942 28 1550 1549 1561
1943 18 1549 1551 1552
1944 17 1549 1561 1562
1945 28 1548 1547 1561
1946 18 1547 1546 1551
1947 17 1547 1561 1562
1948 16 1547 1561 1549
1949 25 1546 1547 1548
1950 22 1546 1547 1561
1951 18 1546 1551 1549
1952 20 1546 1551 1552
1953 18 1545 1546 1547
1954 20 1545 1546 1551
1955 20 1544 1543 1552
1956 20 1544 1545 1546
1957 20 1543 1544 1545
1958 20 1543 1552 1551
1959 27 1542 1541 1553
1960 27 1542 1543 1544
1961 27 1542 1543 1552
1962 19 1541 1542 1543
1963 20 1541 1553 1554
1964 27 1540 1541 1542
1965 20 1540 1541 1553
1966 20 1539 1538 1554
1967 20 1539 1540 1541
1968 20 1538 1539 1540
1969 20 1538 1554 1553
1970 25 1537 1536 1538
1971 18 1536 1538 1539
1972 18 1536 1538 1554
1973 18 1535 1554 1553
1974 18 1535 1554 1538
1975 16 1535 1521 1536
1976 25 1534 1535 1554
1977 23 1521 1520 1522
1978 28 1521 1535 1534
1979 22 1521 1535 1554
1980 28 1521 1536 1537
1981 22 1521 1536 1538
1982 17 1520 1521 1535
1983 17 1520 1521 1536
1984 20 1520 1522 1523
1985 23 1519 1520 1521
1986 20 1519 1520 1522
1987 20 1518 1517 1523
1988 20 1518 1519 1520
1989 20 1517 1518 1519
1990 20 1517 1523 1522
1991 27 1516 1515 1524
1992 27 1516 1517 1518
1993 27 1516 1517 1523
1994 19 1515 1516 1517
1995 20 1515 1524 1525
1996 27 1514 1515 1516
1997 20 1514 1515 1524
1998 20 1513 1512 1525
1999 20 1513 1514 1515
2000 20 1512 1513 1514
2001 20 1512 1525 1524
2002 23 1511 1512 1513
2003 23 1511 1512 1525
2004 22 1501 1499 1511
2005 25 1500 1499 1501
2006 28 1500 1499 1511
2007 18 1499 1501 1502
2008 17 1499 1511 1512
2009 28 1498 1497 1511
2010 18 1497 1496 1501
2011 17 1497 1511 1512
2012 16 1497 1511 1499
2013 25 1496 1497 1498
2014 22 1496 1497 1511
2015 18 1496 1501 1499
2016 20 1496 1501 1502
2017 18 1495 1496 1497
2018 20 1495 1496 1501
2019 20 1494 1493 1502
2020 20 1494 1495 1496
2021 20 1493 1494 1495
2022 20 1493 1502 1501
2023 27 1492 1491 1503
2024 27 1492 1493 1494
2025 27 1492 1493 1502
2026 19 1491 1492 1493
2027 20 1491 1503 1504
2028 27 1490 1491 1492
2029 20 1490 1491 1503
2030 20 1489 1488 1504
2031 20 1489 1490 1491
2032 20 1488 1489 1490
2033 20 1488 1504 1503
2034 25 1487 1486 1488
2035 18 1486 1488 1489
2036 18 1486 1488 1504
2037 18 1485 1504 1503
2038 18 1485 1504 1488
2039 16 1485 1471 1486
2040 25 1484 1485 1504
2041 23 1471 1470 1472
2042 28 1471 1485 1484
2043 22 1471 1485 1504
2044 28 1471 1486 1487
2045 22 1471 1486 1488
2046 17 1470 1471 1485
2047 17 1470 1471 1486
2048 20 1470 1472 1473
2049 23 1469 1470 1471
2050 20 1469 1470 1472
2051 20 1468 1467 1473
2052 20 1468 1469 1470
2053 20 1467 1468 1469
2054 20 1467 1473 1472
2055 27 1466 1465 1474
2056 27 1466 1467 1468
2057 27 1466 1467 1473
2058 19 1465 1466 1467
2059 20 1465 1474 1475
2060 27 1464 1465 1466
2061 20 1464 1465 1474
2062 20 1463 1462 1475
2063 20 1463 1464 1465
2064 20 1462 1463 1464
2065 20 1462 1475 1474
2066 23 1461 1462 1463
2067 23 1461 1462 1475
2068 22 1451 1449 1461
2069 25 1450 1449 1451
2070 28 1450 1449 1461
2071 18 1449 1451 1452
2072 17 1449 1461 1462
2073 28 1448 1447 1461
2074 18 1447 1446 1451
2075 17 1447 1461 1462
2076 16 1447 1461 1449
2077 25 1446 1447 1448
2078 22 1446 1447 1461
2079 18 1446 1451 1449
2080 20 1446 1451 1452
2081 18 1445 1446 1447
2082 20 1445 1446 1451
2083 20 1444 1443 1452
2084 20 1444 1445 1446
2085 20 1443 1444 1445
2086 20 1443 1452 1451
2087 27 1442 1441 1453
2088 27 1442 1443 1444
2089 27 1442 1443 1452
2090 19 1441 1442 1443
2091 20 1441 1453 1454
2092 27 1440 1441 1442
2093 20 1440 1441 1453
2094 20 1439 1438 1454
2095 20 1439 1440 1441
2096 20 1438 1439 1440
2097 20 1438 1454 1453
2098 25 1437 1436 1438
2099 18 1436 1438 1439
2100 18 1436 1438 1454
2101 18 1435 1454 1453
2102 18 1435 1454 1438
2103 16 1435 1404 1436
2104 25 1434 1435 1454
2105 26 1418 1417 1419
2106 26 1416 1415 1417
2107 26 1415 1417 1418
2108 20 1415 1417 1419
2109 26 1414 1415 1416
2110 20 1414 1415 1417
2111 20 1413 1412 1419
2112 20 1413 1414 1415
2113 20 1412 1413 1414
2114 20 1412 1419 1417
2115 15 1411 1412 1413
2116 15 1411 1412 1419
2117 13 1410 1411 1412
2118 21 1409 1410 1411
2119 28 1408 1407 1409
2120 18 1407 1406 1420
2121 14 1407 1409 1410
2122 25 1406 1407 1408
2123 22 1406 1407 1409
2124 18 1405 1406 1407
2125 20 1405 1406 1420
2126 23 1404 1403 1405
2127 28 1404 1435 1434
2128 22 1404 1435 1454
2129 28 1404 1436 1437
2130 22 1404 1436 1438
2131 17 1403 1404 1435
2132 17 1403 1404 1436
2133 20 1403 1405 1406
2134 20 1402 1401 1420
2135 23 1402 1403 1404
2136 20 1402 1403 1405
2137 20 1401 1402 1403
2138 20 1401 1420 1406
2139 23 1400 1401 1402
2140 23 1400 1401 1420
2141 22 1390 1388 1400
2142 25 1389 1388 1390
2143 28 1389 1388 1400
2144 18 1388 1390 1391
2145 17 1388 1400 1401
2146 28 1387 1386 1400
2147 18 1386 1385 1390
2148 17 1386 1400 1401
2149 16 1386 1400 1388
2150 25 1385 1386 1387
2151 22 1385 1386 1400
2152 18 1385 1390 1388
2153 20 1385 1390 1391
2154 18 1384 1385 1386
2155 20 1384 1385 1390
2156 20 1383 1382 1391
2157 20 1383 1384 1385
2158 20 1382 1383 1384
2159 20 1382 1391 1390
2160 27 1381 1380 1392
2161 27 1381 1382 1383
2162 27 1381 1382 1391
2163 19 1380 1381 1382
2164 20 1380 1392 1393
2165 27 1379 1380 1381
2166 20 1379 1380 1392
2167 20 1378 1377 1393
2168 20 1378 1379 1380
2169 20 1377 1378 1379
2170 20 1377 1393 1392
2171 25 1376 1375 1377
2172 18 1375 1377 1378
2173 18 1375 1377 1393
2174 18 1374 1393 1392
2175 18 1374 1393 1377
2176 16 1374 1358 1375
2177 25 1373 1374 1393
2178 23 1358 1357 1359
2179 28 1358 1374 1373
2180 22 1358 1374 1393
2181 28 1358 1375 1376
2182 22 1358 1375 1377
2183 17 1357 1358 1374
2184 17 1357 1358 1375
2185 20 1357 1359 1360
2186 23 1356 1357 1358
2187 20 1356 1357 1359
2188 20 1355 1354 1360
2189 20 1355 1356 1357
2190 20 1354 1355 1356
2191 20 1354 1360 1359
2192 27 1353 1352 1361
2193 27 1353 1354 1355
2194 27 1353 1354 1360
2195 19 1352 1353 1354
2196 20 1352 1361 1362
2197 27 1351 1352 1353
2198 20 1351 1352 1361
2199 20 1350 1349 1362
2200 20 1350 1351 1352
2201 20 1349 1350 1351
2202 20 1349 1362 1361
2203 24 1348 1349 1350
2204 24 1348 1349 1362
2205 24 2231 2230 2232
2206 20 2230 2232 2233
2207 24 2229 2230 2231
2208 20 2229 2230 2232
2209 20 2228 2227 2233
2210 20 2228 2229 2230
2211 20 2227 2228 2229
2212 20 2227 2233 2232
2213 27 2226 2225 2234
2214 27 2226 2227 2228
2215 27 2226 2227 2233
2216 19 2225 2226 2227
2217 20 2225 2234 2235
2218 27 2224 2225 2226
2219 20 2224 2225 2234
2220 20 2223 2222 2235
2221 20 2223 2224 2225
2222 20 2222 2223 2224
2223 20 2222 2235 2234
2224 23 2221 2222 2223
2225 23 2221 2222 2235
2226 22 2211 2209 2221
2227 25 2210 2209 2211
2228 28 2210 2209 2221
2229 18 2209 2211 2212
2230 17 2209 2221 2222
2231 28 2208 2207 2221
2232 18 2207 2206 2211
2233 17 2207 2221 2222
2234 16 2207 2221 2209
2235 25 2206 2207 2208
2236 22 2206 2207 2221
2237 18 2206 2211 2209
2238 20 2206 2211 2212
2239 18 2205 2206 2207
2240 20 2205 2206 2211
2241 20 2204 2203 2212
2242 20 2204 2205 2206
2243 20 2203 2204 2205
2244 20 2203 2212 2211
2245 27 2202 2201 2213
2246 27 2202 2203 2204
2247 27 2202 2203 2212
2248 19 2201 2202 2203
2249 20 2201 2213 2214
2250 27 2200 2201 2202
2251 20 2200 2201 2213
2252 20 2199 2198 2214
2253 20 2199 2200 2201
2254 20 2198 2199 2200
2255 20 2198 2214 2213
2256 25 2197 2196 2198
2257 18 2196 2198 2199
2258 18 2196 2198 2214
2259 18 2195 2214 2213
2260 18 2195 2214 2198
2261 16 2195 2164 2196
2262 25 2194 2195 2214
2263 26 2178 2177 2179
2264 26 2176 2175 2177
2265 26 2175 2177 2178
2266 20 2175 2177 2179
2267 26 2174 2175 2176
2268 20 2174 2175 2177
2269 20 2173 2172 2179
2270 20 2173 2174 2175
2271 20 2172 2173 2174
2272 20 2172 2179 2177
2273 15 2171 2172 2173
2274 15 2171 2172 2179
2275 13 2170 2171 2172
2276 21 2169 2170 2171
2277 28 2168 2167 2169
2278 18 2167 2166 2180
2279 14 2167 2169 2170
2280 25 2166 2167 2168
2281 22 2166 2167 2169
2282 18 2165 2166 2167
2283 20 2165 2166 2180
2284 23 2164 2163 2165
2285 28 2164 2195 2194
2286 22 2164 2195 2214
2287 28 2164 2196 2197
2288 22 2164 2196 2198
2289 17 2163 2164 2195
2290 17 2163 2164 2196
2291 20 2163 2165 2166
2292 20 2162 2161 2180
2293 23 2162 2163 2164
2294 20 2162 2163 2165
2295 20 2161 2162 2163
2296 20 2161 2180 2166
2297 23 2160 2161 2162
2298 23 2160 2161 2180
2299 22 2150 2148 2160
2300 25 2149 2148 2150
2301 28 2149 2148 2160
2302 18 2148 2150 2151
2303 17 2148 2160 2161
2304 28 2147 2146 2160
2305 18 2146 2145 2150
2306 17 2146 2160 2161
2307 16 2146 2160 2148
2308 25 2145 2146 2147
2309 22 2145 2146 2160
2310 18 2145 2150 2148
2311 20 2145 2150 2151
2312 18 2144 2145 2146
2313 20 2144 2145 2150
2314 20 2143 2142 2151
2315 20 2143 2144 2145
2316 20 2142 2143 2144
2317 20 2142 2151 2150
2318 27 2141 2140 2152
2319 27 2141 2142 2143
2320 27 2141 2142 2151
2321 19 2140 2141 2142
2322 20 2140 2152 2153
2323 27 2139 2140 2141
2324 20 2139 2140 2152
2325 20 2138 2137 2153
2326 20 2138 2139 2140
2327 20 2137 2138 2139
2328 20 2137 2153 2152
2329 25 2136 2135 2137
2330 18 2135 2137 2138
2331 18 2135 2137 2153
2332 18 2134 2153 2152
2333 18 2134 2153 2137
2334 16 2134 2120 2135
2335 25 2133 2134 2153
2336 23 2120 2119 2121
2337 28 2120 2134 2133
2338 22 2120 2134 2153
2339 28 2120 2135 2136
2340 22 2120 2135 2137
2341 17 2119 2120 2134
2342 17 2119 2120 2135
2343 20 2119 2121 2122
2344 23 2118 2119 2120
2345 20 2118 2119 2121
2346 20 2117 2116 2122
2347 20 2117 2118 2119
2348 20 2116 2117 2118
2349 20 2116 2122 2121
2350 27 2115 2114 2123
2351 27 2115 2116 2117
2352 27 2115 2116 2122
2353 19 2114 2115 2116
2354 20 2114 2123 2124
2355 27 2113 2114 2115
2356 20 2113 2114 2123
2357 20 2112 2111 2124
2358 20 2112 2113 2114
2359 20 2111 2112 2113
2360 20 2111 2124 2123
2361 23 2110 2111 2112
2362 23 2110 2111 2124
2363 22 2100 2098 2110
2364 25 2099 2098 2100
2365 28 2099 2098 2110
2366 18 2098 2100 2101
2367 17 2098 2110 2111
2368 28 2097 2096 2110
2369 18 2096 2095 2100
2370 17 2096 2110 2111
2371 16 2096 2110 2098
2372 25 2095 2096 2097
2373 22 2095 2096 2110
2374 18 2095 2100 2098
2375 20 2095 2100 2101
2376 18 2094 2095 2096
2377 20 2094 2095 2100
2378 20 2093 2092 2101
2379 20 2093 2094 2095
2380 20 2092 2093 2094
2381 20 2092 2101 2100
2382 27 2091 2090 2102
2383 27 2091 2092 2093
2384 27 2091 2092 2101
2385 19 2090 2091 2092
2386 20 2090 2102 2103
2387 27 2089 2090 2091
2388 20 2089 2090 2102
2389 20 2088 2087 2103
2390 20 2088 2089 2090
2391 20 2087 2088 2089
2392 20 2087 2103 2102
2393 25 2086 2085 2087
2394 18 2085 2087 2088
2395 18 2085 2087 2103
2396 18 2084 2103 2102
2397 18 2084 2103 2087
2398 16 2084 2070 2085
2399 25 2083 2084 2103
2400 23 2070 2069 2071
2401 28 2070 2084 2083
2402 22 2070 2084 2103
2403 28 2070 2085 2086
2404 22 2070 2085 2087
2405 17 2069 2070 2084
2406 17 2069 2070 2085
2407 20 2069 2071 2072
2408 23 2068 2069 2070
2409 20 2068 2069 2071
2410 20 2067 2066 2072
2411 20 2067 2068 2069
2412 20 2066 2067 2068
2413 20 2066 2072 2071
2414 27 2065 2064 2073
2415 27 2065 2066 2067
2416 27 2065 2066 2072
2417 19 2064 2065 2066
2418 20 2064 2073 2074
2419 27 2063 2064 2065
2420 20 2063 2064 2073
2421 20 2062 2061 2074
2422 20 2062 2063 2064
2423 20 2061 2062 2063
2424 20 2061 2074 2073
2425 23 2060 2061 2062
2426 23 2060 2061 2074
2427 22 2050 2048 2060
2428 25 2049 2048 2050
2429 28 2049 2048 2060
2430 18 2048 2050 2051
2431 17 2048 2060 2061
2432 28 2047 2046 2060
2433 18 2046 2045 2050
2434 17 2046 2060 2061
2435 16 2046 2060 2048
2436 25 2045 2046 2047
2437 22 2045 2046 2060
2438 18 2045 2050 2048
2439 20 2045 2050 2051
2440 18 2044 2045 2046
2441 20 2044 2045 2050
2442 20 2043 2042 2051
2443 20 2043 2044 2045
2444 20 2042 2043 2044
2445 20 2042 2051 2050
2446 27 2041 2040 2052
2447 27 2041 2042 2043
2448 27 2041 2042 2051
2449 19 2040 2041 2042
2450 20 2040 2052 2053
2451 27 2039 2040 2041
2452 20 2039 2040 2052
2453 20 2038 2037 2053
2454 20 2038 2039 2040
2455 20 2037 2038 2039
2456 20 2037 2053 2052
2457 25 2036 2035 2037
2458 18 2035 2037 2038
2459 18 2035 2037 2053
2460 18 2034 2053 2052
2461 18 2034 2053 2037
2462 16 2034 2020 2035
2463 25 2033 2034 2053
2464 23 2020 2019 2021
2465 28 2020 2034 2033
2466 22 2020 2034 2053
2467 28 2020 2035 2036
2468 22 2020 2035 2037
2469 17 2019 2020 2034
2470 17 2019 2020 2035
2471 20 2019 2021 2022
2472 23 2018 2019 2020
2473 20 2018 2019 2021
2474 20 2017 2016 2022
2475 20 2017 2018 2019
2476 20 2016 2017 2018
2477 20 2016 2022 2021
2478 27 2015 2014 2023
2479 27 2015 2016 2017
2480 27 2015 2016 2022
2481 19 2014 2015 2016
2482 20 2014 2023 2024
2483 27 2013 2014 2015
2484 20 2013 2014 2023
2485 20 2012 2011 2024
2486 20 2012 2013 2014
2487 20 2011 2012 2013
2488 20 2011 2024 2023
2489 23 2010 2011 2012
2490 23 2010 2011 2024
2491 22 2000 1998 2010
2492 25 1999 1998 2000
2493 28 1999 1998 2010
2494 18 1998 2000 2001
2495 17 1998 2010 2011
2496 28 1997 1996 2010
2497 18 1996 1995 2000
2498 17 1996 2010 2011
2499 16 1996 2010 1998
2500 25 1995 1996 1997
2501 22 1995 1996 2010
2502 18 1995 2000 1998
2503 20 1995 2000 2001
2504 18 1994 1995 1996
2505 20 1994 1995 2000
2506 20 1993 1992 2001
2507 20 1993 1994 1995
2508 20 1992 1993 1994
2509 20 1992 2001 2000
2510 27 1991 1990 2002
2511 27 1991 1992 1993
2512 27 1991 1992 2001
2513 19 1990 1991 1992
2514 20 1990 2002 2003
2515 27 1989 1990 1991
2516 20 1989 1990 2002
2517 20 1988 1987 2003
2518 20 1988 1989 1990
2519 20 1987 1988 1989
2520 20 1987 2003 2002
2521 25 1986 1985 1987
2522 18 1985 1987 1988
2523 18 1985 1987 2003
2524 18 1984 2003 2002
2525 18 1984 2003 1987
2526 16 1984 1970 1985
2527 25 1983 1984 2003
2528 23 1970 1969 1971
2529 28 1970 1984 1983
2530 22 1970 1984 2003
2531 28 1970 1985 1986
2532 22 1970 1985 1987
2533 17 1969 1970 1984
2534 17 1969 1970 1985
2535 20 1969 1971 1972
2536 23 1968 1969 1970
2537 20 1968 1969 1971
2538 20 1967 1966 1972
2539 20 1967 1968 1969
2540 20 1966 1967 1968
2541 20 1966 1972 1971
2542 27 1965 1964 1973
2543 27 1965 1966 1967
2544 27 1965 1966 1972
2545 19 1964 1965 1966
2546 20 1964 1973 1974
2547 27 1963 1964 1965
2548 20 1963 1964 1973
2549 20 1962 1961 1974
2550 20 1962 1963 1964
2551 20 1961 1962 1963
2552 20 1961 1974 1973
2553 23 1960 1961 1962
2554 23 1960 1961 1974
2555 22 1950 1948 1960
2556 25 1949 1948 1950
2557 28 1949 1948 1960
2558 18 1948 1950 1951
2559 17 1948 1960 1961
2560 28 1947 1946 1960
2561 18 1946 1945 1950
2562 17 1946 1960 1961
2563 16 1946 1960 1948
2564 25 1945 1946 1947
2565 22 1945 1946 1960
2566 18 1945 1950 1948
2567 20 1945 1950 1951
2568 18 1944 1945 1946
2569 20 1944 1945 1950
2570 20 1943 1942 1951
2571 20 1943 1944 1945
2572 20 1942 1943 1944
2573 20 1942 1951 1950
2574 27 1941 1940 1952
2575 27 1941 1942 1943
2576 27 1941 1942 1951
2577 19 1940 1941 1942
2578 20 1940 1952 1953
2579 27 1939 1940 1941
2580 20 1939 1940 1952
2581 20 1938 1937 1953
2582 20 1938 1939 1940
2583 20 1937 1938 1939
2584 20 1937 1953 1952
2585 25 1936 1935 1937
2586 18 1935 1937 1938
2587 18 1935 1937 1953
2588 18 1934 1953 1952
2589 18 1934 1953 1937
2590 16 1934 1920 1935
2591 25 1933 1934 1953
2592 23 1920 1919 1921
2593 28 1920 1934 1933
2594 22 1920 1934 1953
2595 28 1920 1935 1936
2596 22 1920 1935 1937
2597 17 1919 1920 1934
2598 17 1919 1920 1935
2599 20 1919 1921 1922
2600 23 1918 1919 1920
2601 20 1918 1919 1921
2602 20 1917 1916 1922
2603 20 1917 1918 1919
2604 20 1916 1917 1918
2605 20 1916 1922 1921
2606 27 1915 1914 1923
2607 27 1915 1916 1917
2608 27 1915 1916 1922
2609 19 1914 1915 1916
2610 20 1914 1923 1924
2611 27 1913 1914 1915
2612 20 1913 1914 1923
2613 20 1912 1911 1924
2614 20 1912 1913 1914
2615 20 1911 1912 1913
2616 20 1911 1924 1923
2617 23 1910 1911 1912
2618 23 1910 1911 1924
2619 22 1900 1898 1910
2620 25 1899 1898 1900
2621 28 1899 1898 1910
2622 18 1898 1900 1901
2623 17 1898 1910 1911
2624 28 1897 1896 1910
2625 18 1896 1895 1900
2626 17 1896 1910 1911
2627 16 1896 1910 1898
2628 25 1895 1896 1897
2629 22 1895 1896 1910
2630 18 1895 1900 1898
2631 20 1895 1900 1901
2632 18 1894 1895 1896
2633 20 1894 1895 1900
2634 20 1893 1892 1901
2635 20 1893 1894 1895
2636 20 1892 1893 1894
2637 20 1892 1901 1900
2638 27 1891 1890 1902
2639 27 1891 1892 1893
2640 27 1891 1892 1901
2641 19 1890 1891 1892
2642 20 1890 1902 1903
2643 27 1889 1890 1891
2644 20 1889 1890 1902
2645 20 1888 1887 1903
2646 20 1888 1889 1890
2647 20 1887 1888 1889
2648 20 1887 1903 1902
2649 25 1886 1885 1887
2650 18 1885 1887 1888
2651 18 1885 1887 1903
2652 18 1884 1903 1902
2653 18 1884 1903 1887
2654 16 1884 1853 1885
2655 25 1883 1884 1903
2656 26 1867 1866 1868
2657 26 1865 1864 1866
2658 26 1864 1866 1867
2659 20 1864 1866 1868
2660 26 1863 1864 1865
2661 20 1863 1864 1866
2662 20 1862 1861 1868
2663 20 1862 1863 1864
2664 20 1861 1862 1863
2665 20 1861 1868 1866
2666 15 1860 1861 1862
2667 15 1860 1861 1868
2668 13 1859 1860 1861
2669 21 1858 1859 1860
2670 28 1857 1856 1858
2671 18 1856 1855 1869
2672 14 1856 1858 1859
2673 25 1855 1856 1857
2674 22 1855 1856 1858
2675 18 1854 1855 1856
2676 20 1854 1855 1869
2677 23 1853 1852 1854
2678 28 1853 1884 1883
2679 22 1853 1884 1903
2680 28 1853 1885 1886
2681 22 1853 1885 1887
2682 17 1852 1853 1884
2683 17 1852 1853 1885
2684 20 1852 1854 1855
2685 20 1851 1850 1869
2686 23 1851 1852 1853
2687 20 1851 1852 1854
2688 20 1850 1851 1852
2689 20 1850 1869 1855
2690 23 1849 1850 1851
2691 23 1849 1850 1869
2692 22 1839 1837 1849
2693 25 1838 1837 1839
2694 28 1838 1837 1849
2695 18 1837 1839 1840
2696 17 1837 1849 1850
2697 28 1836 1835 1849
2698 18 1835 1834 1839
2699 17 1835 1849 1850
2700 16 1835 1849 1837
2701 25 1834 1835 1836
2702 22 1834 1835 1849
2703 18 1834 1839 1837
2704 20 1834 1839 1840
2705 18 1833 1834 1835
2706 20 1833 1834 1839
2707 20 1832 1831 1840
2708 20 1832 1833 1834
2709 20 1831 1832 1833
2710 20 1831 1840 1839
2711 27 1830 1829 1841
2712 27 1830 1831 1832
2713 27 1830 1831 1840
2714 19 1829 1830 1831
2715 20 1829 1841 1842
2716 27 1828 1829 1830
2717 20 1828 1829 1841
2718 20 1827 1826 1842
2719 20 1827 1828 1829
2720 20 1826 1827 1828
2721 20 1826 1842 1841
2722 25 1825 1824 1826
2723 18 1824 1826 1827
2724 18 1824 1826 1842
2725 18 1823 1842 1841
2726 18 1823 1842 1826
2727 16 1823 1807 1824
2728 25 1822 1823 1842
2729 23 1807 1806 1808
2730 28 1807 1823 1822
2731 22 1807 1823 1842
2732 28 1807 1824 1825
2733 22 1807 1824 1826
2734 17 1806 1807 1823
2735 17 1806 1807 1824
2736 20 1806 1808 1809
2737 23 1805 1806 1807
2738 20 1805 1806 1808
2739 20 1804 1803 1809
2740 20 1804 1805 1806
2741 20 1803 1804 1805
2742 20 1803 1809 1808
2743 27 1802 1801 1810
2744 27 1802 1803 1804
2745 27 1802 1803 1809
2746 19 1801 1802 1803
2747 20 1801 1810 1811
2748 27 1800 1801 1802
2749 20 1800 1801 1810
2750 20 1799 1798 1811
2751 20 1799 1800 1801
2752 20 1798 1799 1800
2753 20 1798 1811 1810
2754 24 1797 1798 1799
2755 24 1797 1798 1811
2756 24 2680 2679 2681
2757 20 2679 2681 2682
2758 24 2678 2679 2680
2759 20 2678 2679 2681
2760 20 2677 2676 2682
2761 20 2677 2678 2679
2762 20 2676 2677 2678
2763 20 2676 2682 2681
2764 27 2675 2674 2683
2765 27 2675 2676 2677
2766 27 2675 2676 2682
2767 19 2674 2675 2676
2768 20 2674 2683 2684
2769 27 2673 2674 2675
2770 20 2673 2674 2683
2771 20 2672 2671 2684
2772 20 2672 2673 2674
2773 20 2671 2672 2673
2774 20 2671 2684 2683
2775 23 2670 2671 2672
2776 23 2670 2671 2684
2777 22 2660 2658 2670
2778 25 2659 2658 2660
2779 28 2659 2658 2670
2780 18 2658 2660 2661
2781 17 2658 2670 2671
2782 28 2657 2656 2670
2783 18 2656 2655 2660
2784 17 2656 2670 2671
2785 16 2656 2670 2658
2786 25 2655 2656 2657
2787 22 2655 2656 2670
2788 18 2655 2660 2658
2789 20 2655 2660 2661
2790 18 2654 2655 2656
2791 20 2654 2655 2660
2792 20 2653 2652 2661
2793 20 2653 2654 2655
2794 20 2652 2653 2654
2795 20 2652 2661 2660
2796 27 2651 2650 2662
2797 27 2651 2652 2653
2798 27 2651 2652 2661
2799 19 2650 2651 2652
2800 20 2650 2662 2663
2801 27 2649 2650 2651
2802 20 2649 2650 2662
2803 20 2648 2647 2663
2804 20 2648 2649 2650
2805 20 2647 2648 2649
2806 20 2647 2663 2662
2807 25 2646 2645 2647
2808 18 2645 2647 2648
2809 18 2645 2647 2663
2810 18 2644 2663 2662
2811 18 2644 2663 2647
2812 16 2644 2613 2645
2813 25 2643 2644 2663
2814 26 2627 2626 2628
2815 26 2625 2624 2626
2816 26 2624 2626 2627
2817 20 2624 2626 2628
2818 26 2623 2624 2625
2819 20 2623 2624 2626
2820 20 2622 2621 2628
2821 20 2622 2623 2624
2822 20 2621 2622 2623
2823 20 2621 2628 2626
2824 15 2620 2621 2622
2825 15 2620 2621 2628
2826 13 2619 2620 2621
2827 21 2618 2619 2620
2828 28 2617 2616 2618
2829 18 2616 2615 2629
2830 14 2616 2618 2619
2831 25 2615 2616 2617
2832 22 2615 2616 2618
2833 18 2614 2615 2616
2834 20 2614 2615 2629
2835 23 2613 2612 2614
2836 28 2613 2644 2643
2837 22 2613 2644 2663
2838 28 2613 2645 2646
2839 22 2613 2645 2647
2840 17 2612 2613 2644
2841 17 2612 2613 2645
2842 20 2612 2614 2615
2843 20 2611 2610 2629
2844 23 2611 2612 2613
2845 20 2611 2612 2614
2846 20 2610 2611 2612
2847 20 2610 2629 2615
2848 23 2609 2610 2611
2849 23 2609 2610 2629
2850 22 2599 2597 2609
2851 25 2598 2597 2599
2852 28 2598 2597 2609
2853 18 2597 2599 2600
2854 17 2597 2609 2610
2855 28 2596 2595 2609
2856 18 2595 2594 2599
2857 17 2595 2609 2610
2858 16 2595 2609 2597
2859 25 2594 2595 2596
2860 22 2594 2595 2609
2861 18 2594 2599 2597
2862 20 2594 2599 2600
2863 18 2593 2594 2595
2864 20 2593 2594 2599
2865 20 2592 2591 2600
2866 20 2592 2593 2594
2867 20 2591 2592 2593
2868 20 2591 2600 2599
2869 27 2590 2589 2601
2870 27 2590 2591 2592
2871 27 2590 2591 2600
2872 19 2589 2590 2591
2873 20 2589 2601 2602
2874 27 2588 2589 2590
2875 20 2588 2589 2601
2876 20 2587 2586 2602
2877 20 2587 2588 2589
2878 20 2586 2587 2588
2879 20 2586 2602 2601
2880 25 2585 2584 2586
2881 18 2584 2586 2587
2882 18 2584 2586 2602
2883 18 2583 2602 2601
2884 18 2583 2602 2586
2885 16 2583 2569 2584
2886 25 2582 2583 2602
2887 23 2569 2568 2570
2888 28 2569 2583 2582
2889 22 2569 2583 2602
2890 28 2569 2584 2585
2891 22 2569 2584 2586
2892 17 2568 2569 2583
2893 17 2568 2569 2584
2894 20 2568 2570 2571
2895 23 2567 2568 2569
2896 20 2567 2568 2570
2897 20 2566 2565 2571
2898 20 2566 2567 2568
2899 20 2565 2566 2567
2900 20 2565 2571 2570
2901 27 2564 2563 2572
2902 27 2564 2565 2566
2903 27 2564 2565 2571
2904 19 2563 2564 2565
2905 20 2563 2572 2573
2906 27 2562 2563 2564
2907 20 2562 2563 2572
2908 20 2561 2560 2573
2909 20 2561 2562 2563
2910 20 2560 2561 2562
2911 20 2560 2573 2572
2912 23 2559 2560 2561
2913 23 2559 2560 2573
2914 22 2549 2547 2559
2915 25 2548 2547 2549
2916 28 2548 2547 2559
2917 18 2547 2549 2550
2918 17 2547 2559 2560
2919 28 2546 2545 2559
2920 18 2545 2544 2549
2921 17 2545 2559 2560
2922 16 2545 2559 2547
2923 25 2544 2545 2546
2924 22 2544 2545 2559
2925 18 2544 2549 2547
2926 20 2544 2549 2550
2927 18 2543 2544 2545
2928 20 2543 2544 2549
2929 20 2542 2541 2550
2930 20 2542 2543 2544
2931 20 2541 2542 2543
2932 20 2541 2550 2549
2933 27 2540 2539 2551
2934 27 2540 2541 2542
2935 27 2540 2541 2550
2936 19 2539 2540 2541
2937 20 2539 2551 2552
2938 27 2538 2539 2540
2939 20 2538 2539 2551
2940 20 2537 2536 2552
2941 20 2537 2538 2539
2942 20 2536 2537 2538
2943 20 2536 2552 2551
2944 25 2535 2534 2536
2945 18 2534 2536 2537
2946 18 2534 2536 2552
2947 18 2533 2552 2551
2948 18 2533 2552 2536
2949 16 2533 2519 2534
2950 25 2532 2533 2552
2951 23 2519 2518 2520
2952 28 2519 2533 2532
2953 22 2519 2533 2552
2954 28 2519 2534 2535
2955 22 2519 2534 2536
2956 17 2518 2519 2533
2957 17 2518 2519 2534
2958 20 2518 2520 2521
2959 23 2517 2518 2519
2960 20 2517 2518 2520
2961 20 2516 2515 2521
2962 20 2516 2517 2518
2963 20 2515 2516 2517
2964 20 2515 2521 2520
2965 27 2514 2513 2522
2966 27 2514 2515 2516
2967 27 2514 2515 2521
2968 19 2513 2514 2515
2969 20 2513 2522 2523
2970 27 2512 2513 2514
2971 20 2512 2513 2522
2972 20 2511 2510 2523
2973 20 2511 2512 2513
2974 20 2510 2511 2512
2975 20 2510 2523 2522
2976 23 2509 2510 2511
2977 23 2509 2510 2523
2978 22 2499 2497 2509
2979 25 2498 2497 2499
2980 28 2498 2497 2509
2981 18 2497 2499 2500
2982 17 2497 2509 2510
2983 28 2496 2495 2509
2984 18 2495 2494 2499
2985 17 2495 2509 2510
2986 16 2495 2509 2497
2987 25 2494 2495 2496
2988 22 2494 2495 2509
2989 18 2494 2499 2497
2990 20 2494 2499 2500
2991 18 2493 2494 2495
2992 20 2493 2494 2499
2993 20 2492 2491 2500
2994 20 2492 2493 2494
2995 20 2491 2492 2493
2996 20 2491 2500 2499
2997 27 2490 2489 2501
2998 27 2490 2491 2492
2999 27 2490 2491 2500
3000 19 2489 2490 2491
3001 20 2489 2501 2502
3002 27 2488 2489 2490
3003 20 2488 2489 2501
3004 20 2487 2486 2502
3005 20 2487 2488 2489
3006 20 2486 2487 2488
3007 20 2486 2502 2501
3008 25 2485 2484 2486
3009 18 2484 2486 2487
3010 18 2484 2486 2502
3011 18 2483 2502 2501
3012 18 2483 2502 2486
3013 16 2483 2469 2484
3014 25 2482 2483 2502
3015 23 2469 2468 2470
3016 28 2469 2483 2482
3017 22 2469 2483 2502
3018 28 2469 2484 2485
3019 22 2469 2484 2486
3020 17 2468 2469 2483
3021 17 2468 2469 2484
3022 20 2468 2470 2471
3023 23 2467 2468 2469
3024 20 2467 2468 2470
3025 20 2466 2465 2471
3026 20 2466 2467 2468
3027 20 2465 2466 2467
3028 20 2465 2471 2470
3029 27 2464 2463 2472
3030 27 2464 2465 2466
3031 27 2464 2465 2471
3032 19 2463 2464 2465
3033 20 2463 2472 2473
3034 27 2462 2463 2464
3035 20 2462 2463 2472
3036 20 2461 2460 2473
3037 20 2461 2462 2463
3038 20 2460 2461 2462
3039 20 2460 2473 2472
3040 23 2459 2460 2461
3041 23 2459 2460 2473
3042 22 2449 2447 2459
3043 25 2448 2447 2449
3044 28 2448 2447 2459
3045 18 2447 2449 2450
3046 17 2447 2459 2460
3047 28 2446 2445 2459
3048 18 2445 2444 2449
3049 17 2445 2459 2460
3050 16 2445 2459 2447
3051 25 2444 2445 2446
3052 22 2444 2445 2459
3053 18 2444 2449 2447
3054 20 2444 2449 2450
3055 18 2443 2444 2445
3056 20 2443 2444 2449
3057 20 2442 2441 2450
3058 20 2442 2443 2444
3059 20 2441 2442 2443
3060 20 2441 2450 2449
3061 27 2440 2439 2451
3062 27 2440 2441 2442
3063 27 2440 2441 2450
3064 19 2439 2440 2441
3065 20 2439 2451 2452
3066 27 2438 2439 2440
3067 20 2438 2439 2451
3068 20 2437 2436 2452
3069 20 2437 2438 2439
3070 20 2436 2437 2438
3071 20 2436 2452 2451
3072 25 2435 2434 2436
3073 18 2434 2436 2437
3074 18 2434 2436 2452
3075 18 2433 2452 2451
3076 18 2433 2452 2436
3077 16 2433 2419 2434
3078 25 2432 2433 2452
3079 23 2419 2418 2420
3080 28 2419 2433 2432
3081 22 2419 2433 2452
3082 28 2419 2434 2435
3083 22 2419 2434 2436
3084 17 2418 2419 2433
3085 17 2418 2419 2434
3086 20 2418 2420 2421
3087 23 2417 2418 2419
3088 20 2417 2418 2420
3089 20 2416 2415 2421
3090 20 2416 2417 2418
3091 20 2415 2416 2417
3092 20 2415 2421 2420
3093 27 2414 2413 2422
3094 27 2414 2415 2416
3095 27 2414 2415 2421
3096 19 2413 2414 2415
3097 20 2413 2422 2423
3098 27 2412 2413 2414
3099 20 2412 2413 2422
3100 20 2411 2410 2423
3101 20 2411 2412 2413
3102 20 2410 2411 2412
3103 20 2410 2423 2422
3104 23 2409 2410 2411
3105 23 2409 2410 2423
3106 22 2399 2397 2409
3107 25 2398 2397 2399
3108 28 2398 2397 2409
3109 18 2397 2399 2400
3110 17 2397 2409 2410
3111 28 2396 2395 2409
3112 18 2395 2394 2399
3113 17 2395 2409 2410
3114 16 2395 2409 2397
3115 25 2394 2395 2396
3116 22 2394 2395 2409
3117 18 2394 2399 2397
3118 20 2394 2399 2400
3119 18 2393 2394 2395
3120 20 2393 2394 2399
3121 20 2392 2391 2400
3122 20 2392 2393 2394
3123 20 2391 2392 2393
3124 20 2391 2400 2399
3125 27 2390 2389 2401
3126 27 2390 2391 2392
3127 27 2390 2391 2400
3128 19 2389 2390 2391
3129 20 2389 2401 2402
3130 27 2388 2389 2390
3131 20 2388 2389 2401
3132 20 2387 2386 2402
3133 20 2387 2388 2389
3134 20 2386 2387 2388
3135 20 2386 2402 2401
3136 25 2385 2384 2386
3137 18 2384 2386 2387
3138 18 2384 2386 2402
3139 18 2383 2402 2401
3140 18 2383 2402 2386
3141 16 2383 2369 2384
3142 25 2382 2383 2402
3143 23 2369 2368 2370
3144 28 2369 2383 2382
3145 22 2369 2383 2402
3146 28 2369 2384 2385
3147 22 2369 2384 2386
3148 17 2368 2369 2383
3149 17 2368 2369 2384
3150 20 2368 2370 2371
3151 23 2367 2368 2369
3152 20 2367 2368 2370
3153 20 2366 2365 2371
3154 20 2366 2367 2368
3155 20 2365 2366 2367
3156 20 2365 2371 2370
3157 27 2364 2363 2372
3158 27 2364 2365 2366
3159 27 2364 2365 2371
3160 19 2363 2364 2365
3161 20 2363 2372 2373
3162 27 2362 2363 2364
3163 20 2362 2363 2372
3164 20 2361 2360 2373
3165 20 2361 2362 2363
3166 20 2360 2361 2362
3167 20 2360 2373 2372
3168 23 2359 2360 2361
3169 23 2359 2360 2373
3170 22 2349 2347 2359
3171 25 2348 2347 2349
3172 28 2348 2347 2359
3173 18 2347 2349 2350
3174 17 2347 2359 2360
3175 28 2346 2345 2359
3176 18 2345 2344 2349
3177 17 2345 2359 2360
3178 16 2345 2359 2347
3179 25 2344 2345 2346
3180 22 2344 2345 2359
3181 18 2344 2349 2347
3182 20 2344 2349 2350
3183 18 2343 2344 2345
3184 20 2343 2344 2349
3185 20 2342 2341 2350
3186 20 2342 2343 2344
3187 20 2341 2342 2343
3188 20 2341 2350 2349
3189 27 2340 2339 2351
3190 27 2340 2341 2342
3191 27 2340 2341 2350
3192 19 2339 2340 2341
3193 20 2339 2351 2352
3194 27 2338 2339 2340
3195 20 2338 2339 2351
3196 20 2337 2336 2352
3197 20 2337 2338 2339
3198 20 2336 2337 2338
3199 20 2336 2352 2351
3200 25 2335 2334 2336
3201 18 2334 2336 2337
3202 18 2334 2336 2352
3203 18 2333 2352 2351
3204 18 2333 2352 2336
3205 16 2333 2302 2334
3206 25 2332 2333 2352
3207 26 2316 2315 2317
3208 26 2314 2313 2315
3209 26 2313 2315 2316
3210 20 2313 2315 2317
3211 26 2312 2313 2314
3212 20 2312 2313 2315
3213 20 2311 2310 2317
3214 20 2311 2312 2313
3215 20 2310 2311 2312
3216 20 2310 2317 2315
3217 15 2309 2310 2311
3218 15 2309 2310 2317
3219 13 2308 2309 2310
3220 21 2307 2308 2309
3221 28 2306 2305 2307
3222 18 2305 2304 2318
3223 14 2305 2307 2308
3224 25 2304 2305 2306
3225 22 2304 2305 2307
3226 18 2303 2304 2305
3227 20 2303 2304 2318
3228 23 2302 2301 2303
3229 28 2302 2333 2332
3230 22 2302 2333 2352
3231 28 2302 2334 2335
3232 22 2302 2334 2336
3233 17 2301 2302 2333
3234 17 2301 2302 2334
3235 20 2301 2303 2304
3236 20 2300 2299 2318
3237 23 2300 2301 2302
3238 20 2300 2301 2303
3239 20 2299 2300 2301
3240 20 2299 2318 2304
3241 23 2298 2299 2300
3242 23 2298 2299 2318
3243 22 2288 2286 2298
3244 25 2287 2286 2288
3245 28 2287 2286 2298
3246 18 2286 2288 2289
3247 17 2286 2298 2299
3248 28 2285 2284 2298
3249 18 2284 2283 2288
3250 17 2284 2298 2299
3251 16 2284 2298 2286
3252 25 2283 2284 2285
3253 22 2283 2284 2298
3254 18 2283 2288 2286
3255 20 2283 2288 2289
3256 18 2282 2283 2284
3257 20 2282 2283 2288
3258 20 2281 2280 2289
3259 20 2281 2282 2283
3260 20 2280 2281 2282
3261 20 2280 2289 2288
3262 27 2279 2278 2290
3263 27 2279 2280 2281
3264 27 2279 2280 2289
3265 19 2278 2279 2280
3266 20 2278 2290 2291
3267 27 2277 2278 2279
3268 20 2277 2278 2290
3269 20 2276 2275 2291
3270 20 2276 2277 2278
3271 20 2275 2276 2277
3272 20 2275 2291 2290
3273 25 2274 2273 2275
3274 18 2273 2275 2276
3275 18 2273 2275 2291
3276 18 2272 2291 2290
3277 18 2272 2291 2275
3278 16 2272 2256 2273
3279 25 2271 2272 2291
3280 23 2256 2255 2257
3281 28 2256 2272 2271
3282 22 2256 2272 2291
3283 28 2256 2273 2274
3284 22 2256 2273 2275
3285 17 2255 2256 2272
3286 17 2255 2256 2273
3287 20 2255 2257 2258
3288 23 2254 2255 2256
3289 20 2254 2255 2257
3290 20 2253 2252 2258
3291 20 2253 2254 2255
3292 20 2252 2253 2254
3293 20 2252 2258 2257
3294 27 2251 2250 2259
3295 27 2251 2252 2253
3296 27 2251 2252 2258
3297 19 2250 2251 2252
3298 20 2250 2259 2260
3299 27 2249 2250 2251
3300 20 2249 2250 2259
3301 20 2248 2247 2260
3302 20 2248 2249 2250
3303 20 2247 2248 2249
3304 20 2247 2260 2259
3305 24 2246 2247 2248
3306 24 2246 2247 2260
3307 3 444 435 445
3308 9 439 438 448
3309 9 438 439 449
3310 9 437 436 446
3311 9 436 437 447
3312 9 434 433 443
3313 10 434 435 444
3314 10 434 435 445
3315 9 434 436 446
3316 9 433 432 442
3317 9 432 433 443
3318 9 431 432 442
3319 9 431 437 447
3320 9 429 428 441
3321 9 429 438 448
3322 9 428 427 440
3323 9 427 428 441
3324 9 426 427 440
3325 9 426 439 449
3326 9 418 417 424
3327 9 415 416 423
3328 9 410 409 422
3329 9 409 408 421
3330 9 408 409 422
3331 9 407 408 421
3332 9 407 416 423
3333 9 405 404 420
3334 9 405 417 424
3335 9 404 403 419
3336 9 403 404 420
3337 9 402 403 419
3338 2 390 375 391
3339 1 388 374 389
3340 11 381 382 395
3341 9 381 383 396
3342 9 379 378 393
3343 11 379 380 394
3344 9 378 377 392
3345 9 377 378 393
3346 7 376 375 390
3347 7 376 375 391
3348 9 376 377 392
3349 9 376 383 396
3350 6 375 374 388
3351 6 375 374 389
3352 4 374 373 387
3353 5 374 375 390
3354 5 374 375 391
3355 12 373 374 388
3356 12 373 374 389
3357 8 371 373 387
3358 9 370 369 386
3359 9 370 384 397
3360 9 367 366 385
3361 9 367 369 386
3362 9 365 366 385
3363 9 365 384 397
3364 9 357 356 363
3365 9 354 355 362
3366 9 349 348 361
3367 9 348 347 360
3368 9 347 348 361
3369 9 346 347 360
3370 9 346 355 362
3371 9 344 343 359
3372 9 344 356 363
3373 9 343 342 358
3374 9 342 343 359
3375 9 341 342 358
3376 9 328 327 335
3377 9 327 328 336
3378 9 326 325 333
3379 9 325 326 334
3380 9 323 322 332
3381 9 323 325 333
3382 9 322 321 331
3383 9 321 322 332
3384 9 320 321 331
3385 9 320 326 334
3386 9 318 317 330
3387 9 318 327 335
3388 9 317 316 329
3389 9 316 317 330
3390 9 315 316 329
3391 9 315 328 336
3392 9 307 306 313
3393 9 304 305 312
3394 9 299 298 311
3395 9 298 297 310
3396 9 297 298 311
3397 9 296 297 310
3398 9 296 305 312
3399 9 294 293 309
3400 9 294 306 313
3401 9 293 292 308
3402 9 292 293 309
3403 9 291 292 308
3404 9 278 277 285
3405 9 277 278 286
3406 9 276 275 283
3407 9 275 276 284
3408 9 273 272 282
3409 9 273 275 283
3410 9 272 271 281
3411 9 271 272 282
3412 9 270 271 281
3413 9 270 276 284
3414 9 268 267 280
3415 9 268 277 285
3416 9 267 266 279
3417 9 266 267 280
3418 9 265 266 279
3419 9 265 278 286
3420 9 257 256 263
3421 9 254 255 262
3422 9 249 248 261
3423 9 248 247 260
3424 9 247 248 261
3425 9 246 247 260
3426 9 246 255 262
3427 9 244 243 259
3428 9 244 256 263
3429 9 243 242 258
3430 9 242 243 259
3431 9 241 242 258
3432 9 228 227 235
3433 9 227 228 236
3434 9 226 225 233
3435 9 225 226 234
3436 9 223 222 232
3437 9 223 225 233
3438 9 222 221 231
3439 9 221 222 232
3440 9 220 221 231
3441 9 220 226 234
3442 9 218 217 230
3443 9 218 227 235
3444 9 217 216 229
3445 9 216 217 230
3446 9 215 216 229
3447 9 215 228 236
3448 9 207 206 213
3449 9 204 205 212
3450 9 199 198 211
3451 9 198 197 210
3452 9 197 198 211
3453 9 196 197 210
3454 9 196 205 212
3455 9 194 193 209
3456 9 194 206 213
3457 9 193 192 208
3458 9 192 193 209
3459 9 191 192 208
3460 9 178 177 185
3461 9 177 178 186
3462 9 176 175 183
3463 9 175 176 184
3464 9 173 172 182
3465 9 173 175 183
3466 9 172 171 181
3467 9 171 172 182
3468 9 170 171 181
3469 9 170 176 184
3470 9 168 167 180
3471 9 168 177 185
3472 9 167 166 179
3473 9 166 167 180
3474 9 165 166 179
3475 9 165 178 186
3476 9 157 156 163
3477 9 154 155 162
3478 9 149 148 161
3479 9 148 147 160
3480 9 147 148 161
3481 9 146 147 160
3482 9 146 155 162
3483 9 144 143 159
3484 9 144 156 163
3485 9 143 142 158
3486 9 142 143 159
3487 9 141 142 158
3488 9 128 127 135
3489 9 127 128 136
3490 9 126 125 133
3491 9 125 126 134
3492 9 123 122 132
3493 9 123 125 133
3494 9 122 121 131
3495 9 121 122 132
3496 9 120 121 131
3497 9 120 126 134
3498 9 118 117 130
3499 9 118 127 135
3500 9 117 116 129
3501 9 116 117 130
3502 9 115 116 129
3503 9 115 128 136
3504 9 107 106 113
3505 9 104 105 112
3506 9 99 98 111
3507 9 98 97 110
3508 9 97 98 111
3509 9 96 97 110
3510 9 96 105 112
3511 9 94 93 109
3512 9 94 106 113
3513 9 93 92 108
3514 9 92 93 109
3515 9 91 92 108
3516 2 79 64 80
3517 1 77 63 78
3518 11 70 71 84
3519 9 70 72 85
3520 9 68 67 82
3521 11 68 69 83
3522 9 67 66 81
3523 9 66 67 82
3524 7 65 64 79
3525 7 65 64 80
3526 9 65 66 81
3527 9 65 72 85
3528 6 64 63 77
3529 6 64 63 78
3530 4 63 62 76
3531 5 63 64 79
3532 5 63 64 80
3533 12 62 63 77
3534 12 62 63 78
3535 8 60 62 76
3536 9 59 58 75
3537 9 59 73 86
3538 9 56 55 74
3539 9 56 58 75
3540 9 54 55 74
3541 9 54 73 86
3542 9 46 45 52
3543 9 43 44 51
3544 9 38 37 50
3545 9 37 36 49
3546 9 36 37 50
3547 9 35 36 49
3548 9 35 44 51
3549 9 33 32 48
3550 9 33 45 52
3551 9 32 31 47
3552 9 31 32 48
3553 9 30 31 47
3554 3 16 1 17
3555 9 15 14 24
3556 9 14 15 25
3557 9 13 12 22
3558 9 12 13 23
3559 9 10 9 21
3560 9 10 12 22
3561 9 9 8 20
3562 9 8 9 21
3563 9 7 8 20
3564 9 7 13 23
3565 9 5 4 19
3566 9 5 14 24
3567 9 4 3 18
3568 9 3 4 19
3569 10 2 1 16
3570 10 2 1 17
3571 9 2 3 18
3572 9 2 15 25
3573 3 893 884 894
3574 9 888 887 897
3575 9 887 888 898
3576 9 886 885 895
3577 9 885 886 896
3578 9 883 882 892
3579 10 883 884 893
3580 10 883 884 894
3581 9 883 885 895
3582 9 882 881 891
3583 9 881 882 892
3584 9 880 881 891
3585 9 880 886 896
3586 9 878 877 890
3587 9 878 887 897
3588 9 877 876 889
3589 9 876 877 890
3590 9 875 876 889
3591 9 875 888 898
3592 9 867 866 873
3593 9 864 865 872
3594 9 859 858 871
3595 9 858 857 870
3596 9 857 858 871
3597 9 856 857 870
3598 9 856 865 872
3599 9 854 853 869
3600 9 854 866 873
3601 9 853 852 868
3602 9 852 853 869
3603 9 851 852 868
3604 2 839 824 840
3605 1 837 823 838
3606 11 830 831 844
3607 9 830 832 845
3608 9 828 827 842
3609 11 828 829 843
3610 9 827 826 841
3611 9 826 827 842
3612 7 825 824 839
3613 7 825 824 840
3614 9 825 826 841
3615 9 825 832 845
3616 6 824 823 837
3617 6 824 823 838
3618 4 823 822 836
3619 5 823 824 839
3620 5 823 824 840
3621 12 822 823 837
3622 12 822 823 838
3623 8 820 822 836
3624 9 819 818 835
3625 9 819 833 846
3626 9 816 815 834
3627 9 816 818 835
3628 9 814 815 834
3629 9 814 833 846
3630 9 806 805 812
3631 9 803 804 811
3632 9 798 797 810
3633 9 797 796 809
3634 9 796 797 810
3635 9 795 796 809
3636 9 795 804 811
3637 9 793 792 808
3638 9 793 805 812
3639 9 792 791 807
3640 9 791 792 808
3641 9 790 791 807
3642 9 777 776 784
3643 9 776 777 785
3644 9 775 774 782
3645 9 774 775 783
3646 9 772 771 781
3647 9 772 774 782
3648 9 771 770 780
3649 9 770 771 781
3650 9 769 770 780
3651 9 769 775 783
3652 9 767 766 779
3653 9 767 776 784
3654 9 766 765 778
3655 9 765 766 779
3656 9 764 765 778
3657 9 764 777 785
3658 9 756 755 762
3659 9 753 754 761
3660 9 748 747 760
3661 9 747 746 759
3662 9 746 747 760
3663 9 745 746 759
3664 9 745 754 761
3665 9 743 742 758
3666 9 743 755 762
3667 9 742 741 757
3668 9 741 742 758
3669 9 740 741 757
3670 9 727 726 734
3671 9 726 727 735
3672 9 725 724 732
3673 9 724 725 733
3674 9 722 721 731
3675 9 722 724 732
3676 9 721 720 730
3677 9 720 721 731
3678 9 719 720 730
3679 9 719 725 733
3680 9 717 716 729
3681 9 717 726 734
3682 9 716 715 728
3683 9 715 716 729
3684 9 714 715 728
3685 9 714 727 735
3686 9 706 705 712
3687 9 703 704 711
3688 9 698 697 710
3689 9 697 696 709
3690 9 696 697 710
3691 9 695 696 709
3692 9 695 704 711
3693 9 693 692 708
3694 9 693 705 712
3695 9 692 691 707
3696 9 691 692 708
3697 9 690 691 707
3698 9 677 676 684
3699 9 676 677 685
3700 9 675 674 682
3701 9 674 675 683
3702 9 672 671 681
3703 9 672 674 682
3704 9 671 670 680
3705 9 670 671 681
3706 9 669 670 680
3707 9 669 675 683
3708 9 667 666 679
3709 9 667 676 684
3710 9 666 665 678
3711 9 665 666 679
3712 9 664 665 678
3713 9 664 677 685
3714 9 656 655 662
3715 9 653 654 661
3716 9 648 647 660
3717 9 647 646 659
3718 9 646 647 660
3719 9 645 646 659
3720 9 645 654 661
3721 9 643 642 658
3722 9 643 655 662
3723 9 642 641 657
3724 9 641 642 658
3725 9 640 641 657
3726 9 627 626 634
3727 9 626 627 635
3728 9 625 624 632
3729 9 624 625 633
3730 9 622 621 631
3731 9 622 624 632
3732 9 621 620 630
3733 9 620 621 631
3734 9 619 620 630
3735 9 619 625 633
3736 9 617 616 629
3737 9 617 626 634
3738 9 616 615 628
3739 9 615 616 629
3740 9 614 615 628
3741 9 614 627 635
3742 9 606 605 612
3743 9 603 604 611
3744 9 598 597 610
3745 9 597 596 609
3746 9 596 597 610
3747 9 595 596 609
3748 9 595 604 611
3749 9 593 592 608
3750 9 593 605 612
3751 9 592 591 607
3752 9 591 592 608
3753 9 590 591 607
3754 9 577 576 584
3755 9 576 577 585
3756 9 575 574 582
3757 9 574 575 583
3758 9 572 571 581
3759 9 572 574 582
3760 9 571 570 580
3761 9 570 571 581
3762 9 569 570 580
3763 9 569 575 583
3764 9 567 566 579
3765 9 567 576 584
3766 9 566 565 578
3767 9 565 566 579
3768 9 564 565 578
3769 9 564 577 585
3770 9 556 555 562
3771 9 553 554 561
3772 9 548 547 560
3773 9 547 546 559
3774 9 546 547 560
3775 9 545 546 559
3776 9 545 554 561
3777 9 543 542 558
3778 9 543 555 562
3779 9 542 541 557
3780 9 541 542 558
3781 9 540 541 557
3782 2 528 513 529
3783 1 526 512 527
3784 11 519 520 533
3785 9 519 521 534
3786 9 517 516 531
3787 11 517 518 532
3788 9 516 515 530
3789 9 515 516 531
3790 7 514 513 528
3791 7 514 513 529
3792 9 514 515 530
3793 9 514 521 534
3794 6 513 512 526
3795 6 513 512 527
3796 4 512 511 525
3797 5 512 513 528
3798 5 512 513 529
3799 12 511 512 526
3800 12 511 512 527
3801 8 509 511 525
3802 9 508 507 524
3803 9 508 522 535
3804 9 505 504 523
3805 9 505 507 524
3806 9 503 504 523
3807 9 503 522 535
3808 9 495 494 501
3809 9 492 493 500
3810 9 487 486 499
3811 9 486 485 498
3812 9 485 486 499
3813 9 484 485 498
3814 9 484 493 500
3815 9 482 481 497
3816 9 482 494 501
3817 9 481 480 496
3818 9 480 481 497
3819 9 479 480 496
3820 3 465 450 466
3821 9 464 463 473
3822 9 463 464 474
3823 9 462 461 471
3824 9 461 462 472
3825 9 459 458 470
3826 9 459 461 471
3827 9 458 457 469
3828 9 457 458 470
3829 9 456 457 469
3830 9 456 462 472
3831 9 454 453 468
3832 9 454 463 473
3833 9 453 452 467
3834 9 452 453 468
3835 10 451 450 465
3836 10 451 450 466
3837 9 451 452 467
3838 9 451 464 474
3839 3 1342 1333 1343
3840 9 1337 1336 1346
3841 9 1336 1337 1347
3842 9 1335 1334 1344
3843 9 1334 1335 1345
3844 9 1332 1331 1341
3845 10 1332 1333 1342
3846 10 1332 1333 1343
3847 9 1332 1334 1344
3848 9 1331 1330 1340
3849 9 1330 1331 1341
3850 9 1329 1330 1340
3851 9 1329 1335 1345
3852 9 1327 1326 1339
3853 9 1327 1336 1346
3854 9 1326 1325 1338
3855 9 1325 1326 1339
3856 9 1324 1325 1338
3857 9 1324 1337 1347
3858 9 1316 1315 1322
3859 9 1313 1314 1321
3860 9 1308 1307 1320
3861 9 1307 1306 1319
3862 9 1306 1307 1320
3863 9 1305 1306 1319
3864 9 1305 1314 1321
3865 9 1303 1302 1318
3866 9 1303 1315 1322
3867 9 1302 1301 1317
3868 9 1301 1302 1318
3869 9 1300 1301 1317
3870 2 1288 1273 1289
3871 1 1286 1272 1287
3872 11 1279 1280 1293
3873 9 1279 1281 1294
3874 9 1277 1276 1291
3875 11 1277 1278 1292
3876 9 1276 1275 1290
3877 9 1275 1276 1291
3878 7 1274 1273 1288
3879 7 1274 1273 1289
3880 9 1274 1275 1290
3881 9 1274 1281 1294
3882 6 1273 1272 1286
3883 6 1273 1272 1287
3884 4 1272 1271 1285
3885 5 1272 1273 1288
3886 5 1272 1273 1289
3887 12 1271 1272 1286
3888 12 1271 1272 1287
3889 8 1269 1271 1285
3890 9 1268 1267 1284
3891 9 1268 1282 1295
3892 9 1265 1264 1283
3893 9 1265 1267 1284
3894 9 1263 1264 1283
3895 9 1263 1282 1295
3896 9 1255 1254 1261
3897 9 1252 1253 1260
3898 9 1247 1246 1259
3899 9 1246 1245 1258
3900 9 1245 1246 1259
3901 9 1244 1245 1258
3902 9 1244 1253 1260
3903 9 1242 1241 1257
3904 9 1242 1254 1261
3905 9 1241 1240 1256
3906 9 1240 1241 1257
3907 9 1239 1240 1256
3908 9 1226 1225 1233
3909 9 1225 1226 1234
3910 9 1224 1223 1231
3911 9 1223 1224 1232
3912 9 1221 1220 1230
3913 9 1221 1223 1231
3914 9 1220 1219 1229
3915 9 1219 1220 1230
3916 9 1218 1219 1229
3917 9 1218 1224 1232
3918 9 1216 1215 1228
3919 9 1216 1225 1233
3920 9 1215 1214 1227
3921 9 1214 1215 1228
3922 9 1213 1214 1227
3923 9 1213 1226 1234
3924 9 1205 1204 1211
3925 9 1202 1203 1210
3926 9 1197 1196 1209
3927 9 1196 1195 1208
3928 9 1195 1196 1209
3929 9 1194 1195 1208
3930 9 1194 1203 1210
3931 9 1192 1191 1207
3932 9 1192 1204 1211
3933 9 1191 1190 1206
3934 9 1190 1191 1207
3935 9 1189 1190 1206
3936 9 1176 1175 1183
3937 9 1175 1176 1184
3938 9 1174 1173 1181
3939 9 1173 1174 1182
3940 9 1171 1170 1180
3941 9 1171 1173 1181
3942 9 1170 1169 1179
3943 9 1169 1170 1180
3944 9 1168 1169 1179
3945 9 1168 1174 1182
3946 9 1166 1165 1178
3947 9 1166 1175 1183
3948 9 1165 1164 1177
3949 9 1164 1165 1178
3950 9 1163 1164 1177
3951 9 1163 1176 1184
3952 9 1155 1154 1161
3953 9 1152 1153 1160
3954 9 1147 1146 1159
3955 9 1146 1145 1158
3956 9 1145 1146 1159
3957 9 1144 1145 1158
3958 9 1144 1153 1160
3959 9 1142 1141 1157
3960 9 1142 1154 1161
3961 9 1141 1140 1156
3962 9 1140 1141 1157
3963 9 1139 1140 1156
3964 9 1126 1125 1133
3965 9 1125 1126 1134
3966 9 1124 1123 1131
3967 9 1123 1124 1132
3968 9 1121 1120 1130
3969 9 1121 1123 1131
3970 9 1120 1119 1129
3971 9 1119 1120 1130
3972 9 1118 1119 1129
3973 9 1118 1124 1132
3974 9 1116 1115 1128
3975 9 1116 1125 1133
3976 9 1115 1114 1127
3977 9 1114 1115 1128
3978 9 1113 1114 1127
3979 9 1113 1126 1134
3980 9 1105 1104 1111
3981 9 1102 1103 1110
3982 9 1097 1096 1109
3983 9 1096 1095 1108
3984 9 1095 1096 1109
3985 9 1094 1095 1108
3986 9 1094 1103 1110
3987 9 1092 1091 1107
3988 9 1092 1104 1111
3989 9 1091 1090 1106
3990 9 1090 1091 1107
3991 9 1089 1090 1106
3992 9 1076 1075 1083
3993 9 1075 1076 1084
3994 9 1074 1073 1081
3995 9 1073 1074 1082
3996 9 1071 1070 1080
3997 9 1071 1073 1081
3998 9 1070 1069 1079
3999 9 1069 1070 1080
4000 9 1068 1069 1079
4001 9 1068 1074 1082
4002 9 1066 1065 1078
4003 9 1066 1075 1083
4004 9 1065 1064 1077
4005 9 1064 1065 1078
4006 9 1063 1064 1077
4007 9 1063 1076 1084
4008 9 1055 1054 1061
4009 9 1052 1053 1060
4010 9 1047 1046 1059
4011 9 1046 1045 1058
4012 9 1045 1046 1059
4013 9 1044 1045 1058
4014 9 1044 1053 1060
4015 9 1042 1041 1057
4016 9 1042 1054 1061
4017 9 1041 1040 1056
4018 9 1040 1041 1057
4019 9 1039 1040 1056
4020 9 1026 1025 1033
4021 9 1025 1026 1034
4022 9 1024 1023 1031
4023 9 1023 1024 1032
4024 9 1021 1020 1030
4025 9 1021 1023 1031
4026 9 1020 1019 1029
4027 9 1019 1020 1030
4028 9 1018 1019 1029
4029 9 1018 1024 1032
4030 9 1016 1015 1028
4031 9 1016 1025 1033
4032 9 1015 1014 1027
4033 9 1014 1015 1028
4034 9 1013 1014 1027
4035 9 1013 1026 1034
4036 9 1005 1004 1011
4037 9 1002 1003 1010
4038 9 997 996 1009
4039 9 996 995 1008
4040 9 995 996 1009
4041 9 994 995 1008
4042 9 994 1003 1010
4043 9 992 991 1007
4044 9 992 1004 1011
4045 9 991 990 1006
4046 9 990 991 1007
4047 9 989 990 1006
4048 2 977 962 978
4049 1 975 961 976
4050 11 968 969 982
4051 9 968 970 983
4052 9 966 965 980
4053 11 966 967 981
4054 9 965 964 979
4055 9 964 965 980
4056 7 963 962 977
4057 7 963 962 978
4058 9 963 964 979
4059 9 963 970 983
4060 6 962 961 975
4061 6 962 961 976
4062 4 961 960 974
4063 5 961 962 977
4064 5 961 962 978
4065 12 960 961 975
4066 12 960 961 976
4067 8 958 960 974
4068 9 957 956 973
4069 9 957 971 984
4070 9 954 953 972
4071 9 954 956 973
4072 9 952 953 972
4073 9 952 971 984
4074 9 944 943 950
4075 9 941 942 949
4076 9 936 935 948
4077 9 935 934 947
4078 9 934 935 948
4079 9 933 934 947
4080 9 933 942 949
4081 9 931 930 946
4082 9 931 943 950
4083 9 930 929 945
4084 9 929 930 946
4085 9 928 929 945
4086 3 914 899 915
4087 9 913 912 922
4088 9 912 913 923
4089 9 911 910 920
4090 9 910 911 921
4091 9 908 907 919
4092 9 908 910 920
4093 9 907 906 918
4094 9 906 907 919
4095 9 905 906 918
4096 9 905 911 921
4097 9 903 902 917
4098 9 903 912 922
4099 9 902 901 916
4100 9 901 902 917
4101 10 900 899 914
4102 10 900 899 915
4103 9 900 901 916
4104 9 900 913 923
4105 3 1791 1782 1792
4106 9 1786 1785 1795
4107 9 1785 1786 1796
4108 9 1784 1783 1793
4109 9 1783 1784 1794
4110 9 1781 1780 1790
4111 10 1781 1782 1791
4112 10 1781 1782 1792
4113 9 1781 1783 1793
4114 9 1780 1779 1789
4115 9 1779 1780 1790
4116 9 1778 1779 1789
4117 9 1778 1784 1794
4118 9 1776 1775 1788
4119 9 1776 1785 1795
4120 9 1775 1774 1787
4121 9 1774 1775 1788
4122 9 1773 1774 1787
4123 9 1773 1786 1796
4124 9 1765 1764 1771
4125 9 1762 1763 1770
4126 9 1757 1756 1769
4127 9 1756 1755 1768
4128 9 1755 1756 1769
4129 9 1754 1755 1768
4130 9 1754 1763 1770
4131 9 1752 1751 1767
4132 9 1752 1764 1771
4133 9 1751 1750 1766
4134 9 1750 1751 1767
4135 9 1749 1750 1766
4136 2 1737 1722 1738
4137 1 1735 1721 1736
4138 11 1728 1729 1742
4139 9 1728 1730 1743
4140 9 1726 1725 1740
4141 11 1726 1727 1741
4142 9 1725 1724 1739
4143 9 1724 1725 1740
4144 7 1723 1722 1737
4145 7 1723 1722 1738
4146 9 1723 1724 1739
4147 9 1723 1730 1743
4148 6 1722 1721 1735
4149 6 1722 1721 1736
4150 4 1721 1720 1734
4151 5 1721 1722 1737
4152 5 1721 1722 1738
4153 12 1720 1721 1735
4154 12 1720 1721 1736
4155 8 1718 1720 1734
4156 9 1717 1716 1733
4157 9 1717 1731 1744
4158 9 1714 1713 1732
4159 9 1714 1716 1733
4160 9 1712 1713 1732
4161 9 1712 1731 1744
4162 9 1704 1703 1710
4163 9 1701 1702 1709
4164 9 1696 1695 1708
4165 9 1695 1694 1707
4166 9 1694 1695 1708
4167 9 1693 1694 1707
4168 9 1693 1702 1709
4169 9 1691 1690 1706
4170 9 1691 1703 1710
4171 9 1690 1689 1705
4172 9 1689 1690 1706
4173 9 1688 1689 1705
4174 9 1675 1674 1682
4175 9 1674 1675 1683
4176 9 1673 1672 1680
4177 9 1672 1673 1681
4178 9 1670 1669 1679
4179 9 1670 1672 1680
4180 9 1669 1668 1678
4181 9 1668 1669 1679
4182 9 1667 1668 1678
4183 9 1667 1673 1681
4184 9 1665 1664 1677
4185 9 1665 1674 1682
4186 9 1664 1663 1676
4187 9 1663 1664 1677
4188 9 1662 1663 1676
4189 9 1662 1675 1683
4190 9 1654 1653 1660
4191 9 1651 1652 1659
4192 9 1646 1645 1658
4193 9 1645 1644 1657
4194 9 1644 1645 1658
4195 9 1643 1644 1657
4196 9 1643 1652 1659
4197 9 1641 1640 1656
4198 9 1641 1653 1660
4199 9 1640 1639 1655
4200 9 1639 1640 1656
4201 9 1638 1639 1655
4202 9 1625 1624 1632
4203 9 1624 1625 1633
4204 9 1623 1622 1630
4205 9 1622 1623 1631
4206 9 1620 1619 1629
4207 9 1620 1622 1630
4208 9 1619 1618 1628
4209 9 1618 1619 1629
4210 9 1617 1618 1628
4211 9 1617 1623 1631
4212 9 1615 1614 1627
4213 9 1615 1624 1632
4214 9 1614 1613 1626
4215 9 1613 1614 1627
4216 9 1612 1613 1626
4217 9 1612 1625 1633
4218 9 1604 1603 1610
4219 9 1601 1602 1609
4220 9 1596 1595 1608
4221 9 1595 1594 1607
4222 9 1594 1595 1608
4223 9 1593 1594 1607
4224 9 1593 1602 1609
4225 9 1591 1590 1606
4226 9 1591 1603 1610
4227 9 1590 1589 1605
4228 9 1589 1590 1606
4229 9 1588 1589 1605
4230 9 1575 1574 1582
4231 9 1574 1575 1583
4232 9 1573 1572 1580
4233 9 1572 1573 1581
4234 9 1570 1569 1579
4235 9 1570 1572 1580
4236 9 1569 1568 1578
4237 9 1568 1569 1579
4238 9 1567 1568 1578
4239 9 1567 1573 1581
4240 9 1565 1564 1577
4241 9 1565 1574 1582
4242 9 1564 1563 1576
4243 9 1563 1564 1577
4244 9 1562 1563 1576
4245 9 1562 1575 1583
4246 9 1554 1553 1560
4247 9 1551 1552 1559
4248 9 1546 1545 1558
4249 9 1545 1544 1557
4250 9 1544 1545 1558
4251 9 1543 1544 1557
4252 9 1543 1552 1559
4253 9 1541 1540 1556
4254 9 1541 1553 1560
4255 9 1540 1539 1555
4256 9 1539 1540 1556
4257 9 1538 1539 1555
4258 9 1525 1524 1532
4259 9 1524 1525 1533
4260 9 1523 1522 1530
4261 9 1522 1523 1531
4262 9 1520 1519 1529
4263 9 1520 1522 1530
4264 9 1519 1518 1528
4265 9 1518 1519 1529
4266 9 1517 1518 1528
4267 9 1517 1523 1531
4268 9 1515 1514 1527
4269 9 1515 1524 1532
4270 9 1514 1513 1526
4271 9 1513 1514 1527
4272 9 1512 1513 1526
4273 9 1512 1525 1533
4274 9 1504 1503 1510
4275 9 1501 1502 1509
4276 9 1496 1495 1508
4277 9 1495 1494 1507
4278 9 1494 1495 1508
4279 9 1493 1494 1507
4280 9 1493 1502 1509
4281 9 1491 1490 1506
4282 9 1491 1503 1510
4283 9 1490 1489 1505
4284 9 1489 1490 1506
4285 9 1488 1489 1505
4286 9 1475 1474 1482
4287 9 1474 1475 1483
4288 9 1473 1472 1480
4289 9 1472 1473 1481
4290 9 1470 1469 1479
4291 9 1470 1472 1480
4292 9 1469 1468 1478
4293 9 1468 1469 1479
4294 9 1467 1468 1478
4295 9 1467 1473 1481
4296 9 1465 1464 1477
4297 9 1465 1474 1482
4298 9 1464 1463 1476
4299 9 1463 1464 1477
4300 9 1462 1463 1476
4301 9 1462 1475 1483
4302 9 1454 1453 1460
4303 9 1451 1452 1459
4304 9 1446 1445 1458
4305 9 1445 1444 1457
4306 9 1444 1445 1458
4307 9 1443 1444 1457
4308 9 1443 1452 1459
4309 9 1441 1440 1456
4310 9 1441 1453 1460
4311 9 1440 1439 1455
4312 9 1439 1440 1456
4313 9 1438 1439 1455
4314 2 1426 1411 1427
4315 1 1424 1410 1425
4316 11 1417 1418 1431
4317 9 1417 1419 1432
4318 9 1415 1414 1429
4319 11 1415 1416 1430
4320 9 1414 1413 1428
4321 9 1413 1414 1429
4322 7 1412 1411 1426
4323 7 1412 1411 1427
4324 9 1412 1413 1428
4325 9 1412 1419 1432
4326 6 1411 1410 1424
4327 6 1411 1410 1425
4328 4 1410 1409 1423
4329 5 1410 1411 1426
4330 5 1410 1411 1427
4331 12 1409 1410 1424
4332 12 1409 1410 1425
4333 8 1407 1409 1423
4334 9 1406 1405 1422
4335 9 1406 1420 1433
4336 9 1403 1402 1421
4337 9 1403 1405 1422
4338 9 1401 1402 1421
4339 9 1401 1420 1433
4340 9 1393 1392 1399
4341 9 1390 1391 1398
4342 9 1385 1384 1397
4343 9 1384 1383 1396
4344 9 1383 1384 1397
4345 9 1382 1383 1396
4346 9 1382 1391 1398
4347 9 1380 1379 1395
4348 9 1380 1392 1399
4349 9 1379 1378 1394
4350 9 1378 1379 1395
4351 9 1377 1378 1394
4352 3 1363 1348 1364
4353 9 1362 1361 1371
4354 9 1361 1362 1372
4355 9 1360 1359 1369
4356 9 1359 1360 1370
4357 9 1357 1356 1368
4358 9 1357 1359 1369
4359 9 1356 1355 1367
4360 9 1355 1356 1368
4361 9 1354 1355 1367
4362 9 1354 1360 1370
4363 9 1352 1351 1366
4364 9 1352 1361 1371
4365 9 1351 1350 1365
4366 9 1350 1351 1366
4367 10 1349 1348 1363
4368 10 1349 1348 1364
4369 9 1349 1350 1365
4370 9 1349 1362 1372
4371 3 2240 2231 2241
4372 9 2235 2234 2244
4373 9 2234 2235 2245
4374 9 2233 2232 2242
4375 9 2232 2233 2243
4376 9 2230 2229 2239
4377 10 2230 2231 2240
4378 10 2230 2231 2241
4379 9 2230 2232 2242
4380 9 2229 2228 2238
4381 9 2228 2229 2239
4382 9 2227 2228 2238
4383 9 2227 2233 2243
4384 9 2225 2224 2237
4385 9 2225 2234 2244
4386 9 2224 2223 2236
4387 9 2223 2224 2237
4388 9 2222 2223 2236
4389 9 2222 2235 2245
4390 9 2214 2213 2220
4391 9 2211 2212 2219
4392 9 2206 2205 2218
4393 9 2205 2204 2217
4394 9 2204 2205 2218
4395 9 2203 2204 2217
4396 9 2203 2212 2219
4397 9 2201 2200 2216
4398 9 2201 2213 2220
4399 9 2200 2199 2215
4400 9 2199 2200 2216
4401 9 2198 2199 2215
4402 2 2186 2171 2187
4403 1 2184 2170 2185
4404 11 2177 2178 2191
4405 9 2177 2179 2192
4406 9 2175 2174 2189
4407 11 2175 2176 2190
4408 9 2174 2173 2188
4409 9 2173 2174 2189
4410 7 2172 2171 2186
4411 7 2172 2171 2187
4412 9 2172 2173 2188
4413 9 2172 2179 2192
4414 6 2171 2170 2184
4415 6 2171 2170 2185
4416 4 2170 2169 2183
4417 5 2170 2171 2186
4418 5 2170 2171 2187
4419 12 2169 2170 2184
4420 12 2169 2170 2185
4421 8 2167 2169 2183
4422 9 2166 2165 2182
4423 9 2166 2180 2193
4424 9 2163 2162 2181
4425 9 2163 2165 2182
4426 9 2161 2162 2181
4427 9 2161 2180 2193
4428 9 2153 2152 2159
4429 9 2150 2151 2158
4430 9 2145 2144 2157
4431 9 2144 2143 2156
4432 9 2143 2144 2157
4433 9 2142 2143 2156
4434 9 2142 2151 2158
4435 9 2140 2139 2155
4436 9 2140 2152 2159
4437 9 2139 2138 2154
4438 9 2138 2139 2155
4439 9 2137 2138 2154
4440 9 2124 2123 2131
4441 9 2123 2124 2132
4442 9 2122 2121 2129
4443 9 2121 2122 2130
4444 9 2119 2118 2128
4445 9 2119 2121 2129
4446 9 2118 2117 2127
4447 9 2117 2118 2128
4448 9 2116 2117 2127
4449 9 2116 2122 2130
4450 9 2114 2113 2126
4451 9 2114 2123 2131
4452 9 2113 2112 2125
4453 9 2112 2113 2126
4454 9 2111 2112 2125
4455 9 2111 2124 2132
4456 9 2103 2102 2109
4457 9 2100 2101 2108
4458 9 2095 2094 2107
4459 9 2094 2093 2106
4460 9 2093 2094 2107
4461 9 2092 2093 2106
4462 9 2092 2101 2108
4463 9 2090 2089 2105
4464 9 2090 2102 2109
4465 9 2089 2088 2104
4466 9 2088 2089 2105
4467 9 2087 2088 2104
4468 9 2074 2073 2081
4469 9 2073 2074 2082
4470 9 2072 2071 2079
4471 9 2071 2072 2080
4472 9 2069 2068 2078
4473 9 2069 2071 2079
4474 9 2068 2067 2077
4475 9 2067 2068 2078
4476 9 2066 2067 2077
4477 9 2066 2072 2080
4478 9 2064 2063 2076
4479 9 2064 2073 2081
4480 9 2063 2062 2075
4481 9 2062 2063 2076
4482 9 2061 2062 2075
4483 9 2061 2074 2082
4484 9 2053 2052 2059
4485 9 2050 2051 2058
4486 9 2045 2044 2057
4487 9 2044 2043 2056
4488 9 2043 2044 2057
4489 9 2042 2043 2056
4490 9 2042 2051 2058
4491 9 2040 2039 2055
4492 9 2040 2052 2059
4493 9 2039 2038 2054
4494 9 2038 2039 2055
4495 9 2037 2038 2054
4496 9 2024 2023 2031
4497 9 2023 2024 2032
4498 9 2022 2021 2029
4499 9 2021 2022 2030
4500 9 2019 2018 2028
4501 9 2019 2021 2029
4502 9 2018 2017 2027
4503 9 2017 2018 2028
4504 9 2016 2017 2027
4505 9 2016 2022 2030
4506 9 2014 2013 2026
4507 9 2014 2023 2031
4508 9 2013 2012 2025
4509 9 2012 2013 2026
4510 9 2011 2012 2025
4511 9 2011 2024 2032
4512 9 2003 2002 2009
4513 9 2000 2001 2008
4514 9 1995 1994 2007
4515 9 1994 1993 2006
4516 9 1993 1994 2007
4517 9 1992 1993 2006
4518 9 1992 2001 2008
4519 9 1990 1989 2005
4520 9 1990 2002 2009
4521 9 1989 1988 2004
4522 9 1988 1989 2005
4523 9 1987 1988 2004
4524 9 1974 1973 1981
4525 9 1973 1974 1982
4526 9 1972 1971 1979
4527 9 1971 1972 1980
4528 9 1969 1968 1978
4529 9 1969 1971 1979
4530 9 1968 1967 1977
4531 9 1967 1968 1978
4532 9 1966 1967 1977
4533 9 1966 1972 1980
4534 9 1964 1963 1976
4535 9 1964 1973 1981
4536 9 1963 1962 1975
4537 9 1962 1963 1976
4538 9 1961 1962 1975
4539 9 1961 1974 1982
4540 9 1953 1952 1959
4541 9 1950 1951 1958
4542 9 1945 1944 1957
4543 9 1944 1943 1956
4544 9 1943 1944 1957
4545 9 1942 1943 1956
4546 9 1942 1951 1958
4547 9 1940 1939 1955
4548 9 1940 1952 1959
4549 9 1939 1938 1954
4550 9 1938 1939 1955
4551 9 1937 1938 1954
4552 9 1924 1923 1931
4553 9 1923 1924 1932
4554 9 1922 1921 1929
4555 9 1921 1922 1930
4556 9 1919 1918 1928
4557 9 1919 1921 1929
4558 9 1918 1917 1927
4559 9 1917 1918 1928
4560 9 1916 1917 1927
4561 9 1916 1922 1930
4562 9 1914 1913 1926
4563 9 1914 1923 1931
4564 9 1913 1912 1925
4565 9 1912 1913 1926
4566 9 1911 1912 1925
4567 9 1911 1924 1932
4568 9 1903 1902 1909
4569 9 1900 1901 1908
4570 9 1895 1894 1907
4571 9 1894 1893 1906
4572 9 1893 1894 1907
4573 9 1892 1893 1906
4574 9 1892 1901 1908
4575 9 1890 1889 1905
4576 9 1890 1902 1909
4577 9 1889 1888 1904
4578 9 1888 1889 1905
4579 9 1887 1888 1904
4580 2 1875 1860 1876
4581 1 1873 1859 1874
4582 11 1866 1867 1880
4583 9 1866 1868 1881
4584 9 1864 1863 1878
4585 11 1864 1865 1879
4586 9 1863 1862 1877
4587 9 1862 1863 1878
4588 7 1861 1860 1875
4589 7 1861 1860 1876
4590 9 1861 1862 1877
4591 9 1861 1868 1881
4592 6 1860 1859 1873
4593 6 1860 1859 1874
4594 4 1859 1858 1872
4595 5 1859 1860 1875
4596 5 1859 1860 1876
4597 12 1858 1859 1873
4598 12 1858 1859 1874
4599 8 1856 1858 1872
4600 9 1855 1854 1871
4601 9 1855 1869 1882
4602 9 1852 1851 1870
4603 9 1852 1854 1871
4604 9 1850 1851 1870
4605 9 1850 1869 1882
4606 9 1842 1841 1848
4607 9 1839 1840 1847
4608 9 1834 1833 1846
4609 9 1833 1832 1845
4610 9 1832 1833 1846
4611 9 1831 1832 1845
4612 9 1831 1840 1847
4613 9 1829 1828 1844
4614 9 1829 1841 1848
4615 9 1828 1827 1843
4616 9 1827 1828 1844
4617 9 1826 1827 1843
4618 3 1812 1797 1813
4619 9 1811 1810 1820
4620 9 1810 1811 1821
4621 9 1809 1808 1818
4622 9 1808 1809 1819
4623 9 1806 1805 1817
4624 9 1806 1808 1818
4625 9 1805 1804 1816
4626 9 1804 1805 1817
4627 9 1803 1804 1816
4628 9 1803 1809 1819
4629 9 1801 1800 1815
4630 9 1801 1810 1820
4631 9 1800 1799 1814
4632 9 1799 1800 1815
4633 10 1798 1797 1812
4634 10 1798 1797 1813
4635 9 1798 1799 1814
4636 9 1798 1811 1821
4637 3 2689 2680 2690
4638 9 2684 2683 2693
4639 9 2683 2684 2694
4640 9 2682 2681 2691
4641 9 2681 2682 2692
4642 9 2679 2678 2688
4643 10 2679 2680 2689
4644 10 2679 2680 2690
4645 9 2679 2681 2691
4646 9 2678 2677 2687
4647 9 2677 2678 2688
4648 9 2676 2677 2687
4649 9 2676 2682 2692
4650 9 2674 2673 2686
4651 9 2674 2683 2693
4652 9 2673 2672 2685
4653 9 2672 2673 2686
4654 9 2671 2672 2685
4655 9 2671 2684 2694
4656 9 2663 2662 2669
4657 9 2660 2661 2668
4658 9 2655 2654 2667
4659 9 2654 2653 2666
4660 9 2653 2654 2667
4661 9 2652 2653 2666
4662 9 2652 2661 2668
4663 9 2650 2649 2665
4664 9 2650 2662 2669
4665 9 2649 2648 2664
4666 9 2648 2649 2665
4667 9 2647 2648 2664
4668 2 2635 2620 2636
4669 1 2633 2619 2634
4670 11 2626 2627 2640
4671 9 2626 2628 2641
4672 9 2624 2623 2638
4673 11 2624 2625 2639
4674 9 2623 2622 2637
4675 9 2622 2623 2638
4676 7 2621 2620 2635
4677 7 2621 2620 2636
4678 9 2621 2622 2637
4679 9 2621 2628 2641
4680 6 2620 2619 2633
4681 6 2620 2619 2634
4682 4 2619 2618 2632
4683 5 2619 2620 2635
4684 5 2619 2620 2636
4685 12 2618 2619 2633
4686 12 2618 2619 2634
4687 8 2616 2618 2632
4688 9 2615 2614 2631
4689 9 2615 2629 2642
4690 9 2612 2611 2630
4691 9 2612 2614 2631
4692 9 2610 2611 2630
4693 9 2610 2629 2642
4694 9 2602 2601 2608
4695 9 2599 2600 2607
4696 9 2594 2593 2606
4697 9 2593 2592 2605
4698 9 2592 2593 2606
4699 9 2591 2592 2605
4700 9 2591 2600 2607
4701 9 2589 2588 2604
4702 9 2589 2601 2608
4703 9 2588 2587 2603
4704 9 2587 2588 2604
4705 9 2586 2587 2603
4706 9 2573 2572 2580
4707 9 2572 2573 2581
4708 9 2571 2570 2578
4709 9 2570 2571 2579
4710 9 2568 2567 2577
4711 9 2568 2570 2578
4712 9 2567 2566 2576
4713 9 2566 2567 2577
4714 9 2565 2566 2576
4715 9 2565 2571 2579
4716 9 2563 2562 2575
4717 9 2563 2572 2580
4718 9 2562 2561 2574
4719 9 2561 2562 2575
4720 9 2560 2561 2574
4721 9 2560 2573 2581
4722 9 2552 2551 2558
4723 9 2549 2550 2557
4724 9 2544 2543 2556
4725 9 2543 2542 2555
4726 9 2542 2543 2556
4727 9 2541 2542 2555
4728 9 2541 2550 2557
4729 9 2539 2538 2554
4730 9 2539 2551 2558
4731 9 2538 2537 2553
4732 9 2537 2538 2554
4733 9 2536 2537 2553
4734 9 2523 2522 2530
4735 9 2522 2523 2531
4736 9 2521 2520 2528
4737 9 2520 2521 2529
4738 9 2518 2517 2527
4739 9 2518 2520 2528
4740 9 2517 2516 2526
4741 9 2516 2517 2527
4742 9 2515 2516 2526
4743 9 2515 2521 2529
4744 9 2513 2512 2525
4745 9 2513 2522 2530
4746 9 2512 2511 2524
4747 9 2511 2512 2525
4748 9 2510 2511 2524
4749 9 2510 2523 2531
4750 9 2502 2501 2508
4751 9 2499 2500 2507
4752 9 2494 2493 2506
4753 9 2493 2492 2505
4754 9 2492 2493 2506
4755 9 2491 2492 2505
4756 9 2491 2500 2507
4757 9 2489 2488 2504
4758 9 2489 2501 2508
4759 9 2488 2487 2503
4760 9 2487 2488 2504
4761 9 2486 2487 2503
4762 9 2473 2472 2480
4763 9 2472 2473 2481
4764 9 2471 2470 2478
4765 9 2470 2471 2479
4766 9 2468 2467 2477
4767 9 2468 2470 2478
4768 9 2467 2466 2476
4769 9 2466 2467 2477
4770 9 2465 2466 2476
4771 9 2465 2471 2479
4772 9 2463 2462 2475
4773 9 2463 2472 2480
4774 9 2462 2461 2474
4775 9 2461 2462 2475
4776 9 2460 2461 2474
4777 9 2460 2473 2481
4778 9 2452 2451 2458
4779 9 2449 2450 2457
4780 9 2444 2443 2456
4781 9 2443 2442 2455
4782 9 2442 2443 2456
4783 9 2441 2442 2455
4784 9 2441 2450 2457
4785 9 2439 2438 2454
4786 9 2439 2451 2458
4787 9 2438 2437 2453
4788 9 2437 2438 2454
4789 9 2436 2437 2453
4790 9 2423 2422 2430
4791 9 2422 2423 2431
4792 9 2421 2420 2428
4793 9 2420 2421 2429
4794 9 2418 2417 2427
4795 9 2418 2420 2428
4796 9 2417 2416 2426
4797 9 2416 2417 2427
4798 9 2415 2416 2426
4799 9 2415 2421 2429
4800 9 2413 2412 2425
4801 9 2413 2422 2430
4802 9 2412 2411 2424
4803 9 2411 2412 2425
4804 9 2410 2411 2424
4805 9 2410 2423 2431
4806 9 2402 2401 2408
4807 9 2399 2400 2407
4808 9 2394 2393 2406
4809 9 2393 2392 2405
4810 9 2392 2393 2406
4811 9 2391 2392 2405
4812 9 2391 2400 2407
4813 9 2389 2388 2404
4814 9 2389 2401 2408
4815 9 2388 2387 2403
4816 9 2387 2388 2404
4817 9 2386 2387 2403
4818 9 2373 2372 2380
4819 9 2372 2373 2381
4820 9 2371 2370 2378
4821 9 2370 2371 2379
4822 9 2368 2367 2377
4823 9 2368 2370 2378
4824 9 2367 2366 2376
4825 9 2366 2367 2377
4826 9 2365 2366 2376
4827 9 2365 2371 2379
4828 9 2363 2362 2375
4829 9 2363 2372 2380
4830 9 2362 2361 2374
4831 9 2361 2362 2375
4832 9 2360 2361 2374
4833 9 2360 2373 2381
4834 9 2352 2351 2358
4835 9 2349 2350 2357
4836 9 2344 2343 2356
4837 9 2343 2342 2355
4838 9 2342 2343 2356
4839 9 2341 2342 2355
4840 9 2341 2350 2357
4841 9 2339 2338 2354
4842 9 2339 2351 2358
4843 9 2338 2337 2353
4844 9 2337 2338 2354
4845 9 2336 2337 2353
4846 2 2324 2309 2325
4847 1 2322 2308 2323
4848 11 2315 2316 2329
4849 9 2315 2317 2330
4850 9 2313 2312 2327
4851 11 2313 2314 2328
4852 9 2312 2311 2326
4853 9 2311 2312 2327
4854 7 2310 2309 2324
4855 7 2310 2309 2325
4856 9 2310 2311 2326
4857 9 2310 2317 2330
4858 6 2309 2308 2322
4859 6 2309 2308 2323
4860 4 2308 2307 2321
4861 5 2308 2309 2324
4862 5 2308 2309 2325
4863 12 2307 2308 2322
4864 12 2307 2308 2323
4865 8 2305 2307 2321
4866 9 2304 2303 2320
4867 9 2304 2318 2331
4868 9 2301 2300 2319
4869 9 2301 2303 2320
4870 9 2299 2300 2319
4871 9 2299 2318 2331
4872 9 2291 2290 2297
4873 9 2288 2289 2296
4874 9 2283 2282 2295
4875 9 2282 2281 2294
4876 9 2281 2282 2295
4877 9 2280 2281 2294
4878 9 2280 2289 2296
4879 9 2278 2277 2293
4880 9 2278 2290 2297
4881 9 2277 2276 2292
4882 9 2276 2277 2293
4883 9 2275 2276 2292
4884 3 2261 2246 2262
4885 9 2260 2259 2269
4886 9 2259 2260 2270
4887 9 2258 2257 2267
4888 9 2257 2258 2268
4889 9 2255 2254 2266
4890 9 2255 2257 2267
4891 9 2254 2253 2265
4892 9 2253 2254 2266
4893 9 2252 2253 2265
4894 9 2252 2258 2268
4895 9 2250 2249 2264
4896 9 2250 2259 2269
4897 9 2249 2248 2263
4898 9 2248 2249 2264
4899 10 2247 2246 2261
4900 10 2247 2246 2262
4901 9 2247 2248 2263
4902 9 2247 2260 2270

Dihedrals

1 17 435 434 436 437
2 17 433 432 431 437
3 17 433 434 436 437
4 17 432 431 437 436
5 17 432 433 434 435
6 17 432 433 434 436
7 10 431 430 429 438
8 17 431 432 433 434
9 17 431 437 436 434
10 17 430 429 438 439
11 17 430 431 432 433
12 17 430 431 437 436
13 10 429 430 431 432
14 10 429 430 431 437
15 17 428 427 426 439
16 10 428 429 430 431
17 17 428 429 438 439
18 17 427 426 439 438
19 17 427 428 429 430
20 17 427 428 429 438
21 17 426 427 428 429
22 17 426 439 438 429
23 17 425 426 427 428
24 17 425 426 439 438
25 12 416 415 413 425
26 16 415 413 425 426
27 12 415 410 411 425
28 8 414 413 415 416
29 16 414 413 425 426
30 11 413 425 426 427
31 11 413 425 426 439
32 8 412 411 410 415
33 16 412 411 425 426
34 16 412 411 425 413
35 17 411 410 415 413
36 17 411 410 415 416
37 11 411 425 426 427
38 11 411 425 426 439
39 16 411 425 413 414
40 16 411 425 413 415
41 16 410 411 425 426
42 16 410 411 425 413
43 8 410 415 413 414
44 12 410 415 413 425
45 17 409 408 407 416
46 8 409 410 411 412
47 12 409 410 411 425
48 17 409 410 415 413
49 17 409 410 415 416
50 17 408 407 416 415
51 17 408 409 410 411
52 17 408 409 410 415
53 10 407 406 405 417
54 17 407 408 409 410
55 17 407 416 415 413
56 17 407 416 415 410
57 17 406 405 417 418
58 17 406 407 408 409
59 17 406 407 416 415
60 10 405 406 407 408
61 10 405 406 407 416
62 17 404 403 402 418
63 10 404 405 406 407
64 17 404 405 417 418
65 17 403 402 418 417
66 17 403 404 405 406
67 17 403 404 405 417
68 17 402 403 404 405
69 17 402 418 417 405
70 8 401 400 402 403
71 8 401 400 402 418
72 17 400 402 403 404
73 17 400 402 418 417
74 16 400 368 399 418
75 17 399 418 417 405
76 17 399 418 402 400
77 17 399 418 402 403
78 16 399 368 400 401
79 16 399 368 400 402
80 8 398 399 418 417
81 8 398 399 418 402
82 16 398 399 368 400
83 17 380 379 381 382
84 17 380 379 381 383
85 17 378 377 376 383
86 17 378 379 381 382
87 17 378 379 381 383
88 17 377 376 383 381
89 17 377 378 379 380
90 17 377 378 379 381
91 17 376 377 378 379
92 17 376 383 381 379
93 17 376 383 381 382
94 17 375 376 377 378
95 17 375 376 383 381
96 7 374 375 376 377
97 7 374 375 376 383
98 12 373 371 370 384
99 6 373 374 375 376
100 8 372 371 370 384
101 16 372 371 373 374
102 13 371 373 374 375
103 5 371 373 374 375
104 3 371 373 374 375
105 16 370 371 373 374
106 11 369 367 368 399
107 11 369 367 368 400
108 8 369 370 371 372
109 12 369 370 371 373
110 17 368 367 369 370
111 12 368 399 418 417
112 12 368 399 418 402
113 12 368 400 402 403
114 12 368 400 402 418
115 17 367 366 365 384
116 16 367 368 399 398
117 16 367 368 399 418
118 16 367 368 400 401
119 16 367 368 400 402
120 17 367 369 370 371
121 17 367 369 370 384
122 17 366 365 384 370
123 11 366 367 368 399
124 11 366 367 368 400
125 17 366 367 369 370
126 17 365 366 367 368
127 17 365 366 367 369
128 17 365 384 370 369
129 17 365 384 370 371
130 17 364 365 366 367
131 17 364 365 384 370
132 12 355 354 352 364
133 16 354 352 364 365
134 12 354 349 350 364
135 8 353 352 354 355
136 16 353 352 364 365
137 11 352 364 365 366
138 11 352 364 365 384
139 8 351 350 349 354
140 16 351 350 364 365
141 16 351 350 364 352
142 17 350 349 354 352
143 17 350 349 354 355
144 11 350 364 365 366
145 11 350 364 365 384
146 16 350 364 352 353
147 16 350 364 352 354
148 16 349 350 364 365
149 16 349 350 364 352
150 8 349 354 352 353
151 12 349 354 352 364
152 17 348 347 346 355
153 8 348 349 350 351
154 12 348 349 350 364
155 17 348 349 354 352
156 17 348 349 354 355
157 17 347 346 355 354
158 17 347 348 349 350
159 17 347 348 349 354
160 10 346 345 344 356
161 17 346 347 348 349
162 17 346 355 354 352
163 17 346 355 354 349
164 17 345 344 356 357
165 17 345 346 347 348
166 17 345 346 355 354
167 10 344 345 346 347
168 10 344 345 346 355
169 17 343 342 341 357
170 10 343 344 345 346
171 17 343 344 356 357
172 17 342 341 357 356
173 17 342 343 344 345
174 17 342 343 344 356
175 17 341 342 343 344
176 17 341 357 356 344
177 8 340 339 341 342
178 8 340 339 341 357
179 17 339 341 342 343
180 17 339 341 357 356
181 16 339 324 338 357
182 17 338 357 356 344
183 17 338 357 341 339
184 17 338 357 341 342
185 16 338 324 339 340
186 16 338 324 339 341
187 8 337 338 357 356
188 8 337 338 357 341
189 16 337 338 324 339
190 11 325 323 324 338
191 11 325 323 324 339
192 17 324 323 325 326
193 12 324 338 357 356
194 12 324 338 357 341
195 12 324 339 341 342
196 12 324 339 341 357
197 16 323 324 338 337
198 16 323 324 338 357
199 16 323 324 339 340
200 16 323 324 339 341
201 17 322 321 320 326
202 11 322 323 324 338
203 11 322 323 324 339
204 17 322 323 325 326
205 17 321 320 326 325
206 17 321 322 323 324
207 17 321 322 323 325
208 10 320 319 318 327
209 17 320 321 322 323
210 17 320 326 325 323
211 17 319 318 327 328
212 17 319 320 321 322
213 17 319 320 326 325
214 10 318 319 320 321
215 10 318 319 320 326
216 17 317 316 315 328
217 10 317 318 319 320
218 17 317 318 327 328
219 17 316 315 328 327
220 17 316 317 318 319
221 17 316 317 318 327
222 17 315 316 317 318
223 17 315 328 327 318
224 17 314 315 316 317
225 17 314 315 328 327
226 12 305 304 302 314
227 16 304 302 314 315
228 12 304 299 300 314
229 8 303 302 304 305
230 16 303 302 314 315
231 11 302 314 315 316
232 11 302 314 315 328
233 8 301 300 299 304
234 16 301 300 314 315
235 16 301 300 314 302
236 17 300 299 304 302
237 17 300 299 304 305
238 11 300 314 315 316
239 11 300 314 315 328
240 16 300 314 302 303
241 16 300 314 302 304
242 16 299 300 314 315
243 16 299 300 314 302
244 8 299 304 302 303
245 12 299 304 302 314
246 17 298 297 296 305
247 8 298 299 300 301
248 12 298 299 300 314
249 17 298 299 304 302
250 17 298 299 304 305
251 17 297 296 305 304
252 17 297 298 299 300
253 17 297 298 299 304
254 10 296 295 294 306
255 17 296 297 298 299
256 17 296 305 304 302
257 17 296 305 304 299
258 17 295 294 306 307
259 17 295 296 297 298
260 17 295 296 305 304
261 10 294 295 296 297
262 10 294 295 296 305
263 17 293 292 291 307
264 10 293 294 295 296
265 17 293 294 306 307
266 17 292 291 307 306
267 17 292 293 294 295
268 17 292 293 294 306
269 17 291 292 293 294
270 17 291 307 306 294
271 8 290 289 291 292
272 8 290 289 291 307
273 17 289 291 292 293
274 17 289 291 307 306
275 16 289 274 288 307
276 17 288 307 306 294
277 17 288 307 291 289
278 17 288 307 291 292
279 16 288 274 289 290
280 16 288 274 289 291
281 8 287 288 307 306
282 8 287 288 307 291
283 16 287 288 274 289
284 11 275 273 274 288
285 11 275 273 274 289
286 17 274 273 275 276
287 12 274 288 307 306
288 12 274 288 307 291
289 12 274 289 291 292
290 12 274 289 291 307
291 16 273 274 288 287
292 16 273 274 288 307
293 16 273 274 289 290
294 16 273 274 289 291
295 17 272 271 270 276
296 11 272 273 274 288
297 11 272 273 274 289
298 17 272 273 275 276
299 17 271 270 276 275
300 17 271 272 273 274
301 17 271 272 273 275
302 10 270 269 268 277
303 17 270 271 272 273
304 17 270 276 275 273
305 17 269 268 277 278
306 17 269 270 271 272
307 17 269 270 276 275
308 10 268 269 270 271
309 10 268 269 270 276
310 17 267 266 265 278
311 10 267 268 269 270
312 17 267 268 277 278
313 17 266 265 278 277
314 17 266 267 268 269
315 17 266 267 268 277
316 17 265 266 267 268
317 17 265 278 277 268
318 17 264 265 266 267
319 17 264 265 278 277
320 12 255 254 252 264
321 16 254 252 264 265
322 12 254 249 250 264
323 8 253 252 254 255
324 16 253 252 264 265
325 11 252 264 265 266
326 11 252 264 265 278
327 8 251 250 249 254
328 16 251 250 264 265
329 16 251 250 264 252
330 17 250 249 254 252
331 17 250 249 254 255
332 11 250 264 265 266
333 11 250 264 265 278
334 16 250 264 252 253
335 16 250 264 252 254
336 16 249 250 264 265
337 16 249 250 264 252
338 8 249 254 252 253
339 12 249 254 252 264
340 17 248 247 246 255
341 8 248 249 250 251
342 12 248 249 250 264
343 17 248 249 254 252
344 17 248 249 254 255
345 17 247 246 255 254
346 17 247 248 249 250
347 17 247 248 249 254
348 10 246 245 244 256
349 17 246 247 248 249
350 17 246 255 254 252
351 17 246 255 254 249
352 17 245 244 256 257
353 17 245 246 247 248
354 17 245 246 255 254
355 10 244 245 246 247
356 10 244 245 246 255
357 17 243 242 241 257
358 10 243 244 245 246
359 17 243 244 256 257
360 17 242 241 257 256
361 17 242 243 244 245
362 17 242 243 244 256
363 17 241 242 243 244
364 17 241 257 256 244
365 8 240 239 241 242
366 8 240 239 241 257
367 17 239 241 242 243
368 17 239 241 257 256
369 16 239 224 238 257
370 17 238 257 256 244
371 17 238 257 241 239
372 17 238 257 241 242
373 16 238 224 239 240
374 16 238 224 239 241
375 8 237 238 257 256
376 8 237 238 257 241
377 16 237 238 224 239
378 11 225 223 224 238
379 11 225 223 224 239
380 17 224 223 225 226
381 12 224 238 257 256
382 12 224 238 257 241
383 12 224 239 241 242
384 12 224 239 241 257
385 16 223 224 238 237
386 16 223 224 238 257
387 16 223 224 239 240
388 16 223 224 239 241
389 17 222 221 220 226
390 11 222 223 224 238
391 11 222 223 224 239
392 17 222 223 225 226
393 17 221 220 226 225
394 17 221 222 223 224
395 17 221 222 223 225
396 10 220 219 218 227
397 17 220 221 222 223
398 17 220 226 225 223
399 17 219 218 227 228
400 17 219 220 221 222
401 17 219 220 226 225
402 10 218 219 220 221
403 10 218 219 220 226
404 17 217 216 215 228
405 10 217 218 219 220
406 17 217 218 227 228
407 17 216 215 228 227
408 17 216 217 218 219
409 17 216 217 218 227
410 17 215 216 217 218
411 17 215 228 227 218
412 17 214 215 216 217
413 17 214 215 228 227
414 12 205 204 202 214
415 16 204 202 214 215
416 12 204 199 200 214
417 8 203 202 204 205
418 16 203 202 214 215
419 11 202 214 215 216
420 11 202 214 215 228
421 8 201 200 199 204
422 16 201 200 214 215
423 16 201 200 214 202
424 17 200 199 204 202
425 17 200 199 204 205
426 11 200 214 215 216
427 11 200 214 215 228
428 16 200 214 202 203
429 16 200 214 202 204
430 16 199 200 214 215
431 16 199 200 214 202
432 8 199 204 202 203
433 12 199 204 202 214
434 17 198 197 196 205
435 8 198 199 200 201
436 12 198 199 200 214
437 17 198 199 204 202
438 17 198 199 204 205
439 17 197 196 205 204
440 17 197 198 199 200
441 17 197 198 199 204
442 10 196 195 194 206
443 17 196 197 198 199
444 17 196 205 204 202
445 17 196 205 204 199
446 17 195 194 206 207
447 17 195 196 197 198
448 17 195 196 205 204
449 10 194 195 196 197
450 10 194 195 196 205
451 17 193 192 191 207
452 10 193 194 195 196
453 17 193 194 206 207
454 17 192 191 207 206
455 17 192 193 194 195
456 17 192 193 194 206
457 17 191 192 193 194
458 17 191 207 206 194
459 8 190 189 191 192
460 8 190 189 191 207
461 17 189 191 192 193
462 17 189 191 207 206
463 16 189 174 188 207
464 17 188 207 206 194
465 17 188 207 191 189
466 17 188 207 191 192
467 16 188 174 189 190
468 16 188 174 189 191
469 8 187 188 207 206
470 8 187 188 207 191
471 16 187 188 174 189
472 11 175 173 174 188
473 11 175 173 174 189
474 17 174 173 175 176
475 12 174 188 207 206
476 12 174 188 207 191
477 12 174 189 191 192
478 12 174 189 191 207
479 16 173 174 188 187
480 16 173 174 188 207
481 16 173 174 189 190
482 16 173 174 189 191
483 17 172 171 170 176
484 11 172 173 174 188
485 11 172 173 174 189
486 17 172 173 175 176
487 17 171 170 176 175
488 17 171 172 173 174
489 17 171 172 173 175
490 10 170 169 168 177
491 17 170 171 172 173
492 17 170 176 175 173
493 17 169 168 177 178
494 17 169 170 171 172
495 17 169 170 176 175
496 10 168 169 170 171
497 10 168 169 170 176
498 17 167 166 165 178
499 10 167 168 169 170
500 17 167 168 177 178
501 17 166 165 178 177
502 17 166 167 168 169
503 17 166 167 168 177
504 17 165 166 167 168
505 17 165 178 177 168
506 17 164 165 166 167
507 17 164 165 178 177
508 12 155 154 152 164
509 16 154 152 164 165
510 12 154 149 150 164
511 8 153 152 154 155
512 16 153 152 164 165
513 11 152 164 165 166
514 11 152 164 165 178
515 8 151 150 149 154
516 16 151 150 164 165
517 16 151 150 164 152
518 17 150 149 154 152
519 17 150 149 154 155
520 11 150 164 165 166
521 11 150 164 165 178
522 16 150 164 152 153
523 16 150 164 152 154
524 16 149 150 164 165
525 16 149 150 164 152
526 8 149 154 152 153
527 12 149 154 152 164
528 17 148 147 146 155
529 8 148 149 150 151
530 12 148 149 150 164
531 17 148 149 154 152
532 17 148 149 154 155
533 17 147 146 155 154
534 17 147 148 149 150
535 17 147 148 149 154
536 10 146 145 144 156
537 17 146 147 148 149
538 17 146 155 154 152
539 17 146 155 154 149
540 17 145 144 156 157
541 17 145 146 147 148
542 17 145 146 155 154
543 10 144 145 146 147
544 10 144 145 146 155
545 17 143 142 141 157
546 10 143 144 145 146
547 17 143 144 156 157
548 17 142 141 157 156
549 17 142 143 144 145
550 17 142 143 144 156
551 17 141 142 143 144
552 17 141 157 156 144
553 8 140 139 141 142
554 8 140 139 141 157
555 17 139 141 142 143
556 17 139 141 157 156
557 16 139 124 138 157
558 17 138 157 156 144
559 17 138 157 141 139
560 17 138 157 141 142
561 16 138 124 139 140
562 16 138 124 139 141
563 8 137 138 157 156
564 8 137 138 157 141
565 16 137 138 124 139
566 11 125 123 124 138
567 11 125 123 124 139
568 17 124 123 125 126
569 12 124 138 157 156
570 12 124 138 157 141
571 12 124 139 141 142
572 12 124 139 141 157
573 16 123 124 138 137
574 16 123 124 138 157
575 16 123 124 139 140
576 16 123 124 139 141
577 17 122 121 120 126
578 11 122 123 124 138
579 11 122 123 124 139
580 17 122 123 125 126
581 17 121 120 126 125
582 17 121 122 123 124
583 17 121 122 123 125
584 10 120 119 118 127
585 17 120 121 122 123
586 17 120 126 125 123
587 17 119 118 127 128
588 17 119 120 121 122
589 17 119 120 126 125
590 10 118 119 120 121
591 10 118 119 120 126
592 17 117 116 115 128
593 10 117 118 119 120
594 17 117 118 127 128
595 17 116 115 128 127
596 17 116 117 118 119
597 17 116 117 118 127
598 17 115 116 117 118
599 17 115 128 127 118
600 17 114 115 116 117
601 17 114 115 128 127
602 12 105 104 102 114
603 16 104 102 114 115
604 12 104 99 100 114
605 8 103 102 104 105
606 16 103 102 114 115
607 11 102 114 115 116
608 11 102 114 115 128
609 8 101 100 99 104
610 16 101 100 114 115
611 16 101 100 114 102
612 17 100 99 104 102
613 17 100 99 104 105
614 11 100 114 115 116
615 11 100 114 115 128
616 16 100 114 102 103
617 16 100 114 102 104
618 16 99 100 114 115
619 16 99 100 114 102
620 8 99 104 102 103
621 12 99 104 102 114
622 17 98 97 96 105
623 8 98 99 100 101
624 12 98 99 100 114
625 17 98 99 104 102
626 17 98 99 104 105
627 17 97 96 105 104
628 17 97 98 99 100
629 17 97 98 99 104
630 10 96 95 94 106
631 17 96 97 98 99
632 17 96 105 104 102
633 17 96 105 104 99
634 17 95 94 106 107
635 17 95 96 97 98
636 17 95 96 105 104
637 10 94 95 96 97
638 10 94 95 96 105
639 17 93 92 91 107
640 10 93 94 95 96
641 17 93 94 106 107
642 17 92 91 107 106
643 17 92 93 94 95
644 17 92 93 94 106
645 17 91 92 93 94
646 17 91 107 106 94
647 8 90 89 91 92
648 8 90 89 91 107
649 17 89 91 92 93
650 17 89 91 107 106
651 16 89 57 88 107
652 17 88 107 106 94
653 17 88 107 91 89
654 17 88 107 91 92
655 16 88 57 89 90
656 16 88 57 89 91
657 8 87 88 107 106
658 8 87 88 107 91
659 16 87 88 57 89
660 17 69 68 70 71
661 17 69 68 70 72
662 17 67 66 65 72
663 17 67 68 70 71
664 17 67 68 70 72
665 17 66 65 72 70
666 17 66 67 68 69
667 17 66 67 68 70
668 17 65 66 67 68
669 17 65 72 70 68
670 17 65 72 70 71
671 17 64 65 66 67
672 17 64 65 72 70
673 7 63 64 65 66
674 7 63 64 65 72
675 12 62 60 59 73
676 6 62 63 64 65
677 8 61 60 59 73
678 16 61 60 62 63
679 13 60 62 63 64
680 5 60 62 63 64
681 3 60 62 63 64
682 16 59 60 62 63
683 11 58 56 57 88
684 11 58 56 57 89
685 8 58 59 60 61
686 12 58 59 60 62
687 17 57 56 58 59
688 12 57 88 107 106
689 12 57 88 107 91
690 12 57 89 91 92
691 12 57 89 91 107
692 17 56 55 54 73
693 16 56 57 88 87
694 16 56 57 88 107
695 16 56 57 89 90
696 16 56 57 89 91
697 17 56 58 59 60
698 17 56 58 59 73
699 17 55 54 73 59
700 11 55 56 57 88
701 11 55 56 57 89
702 17 55 56 58 59
703 17 54 55 56 57
704 17 54 55 56 58
705 17 54 73 59 58
706 17 54 73 59 60
707 17 53 54 55 56
708 17 53 54 73 59
709 12 44 43 41 53
710 16 43 41 53 54
711 12 43 38 39 53
712 8 42 41 43 44
713 16 42 41 53 54
714 11 41 53 54 55
715 11 41 53 54 73
716 8 40 39 38 43
717 16 40 39 53 54
718 16 40 39 53 41
719 17 39 38 43 41
720 17 39 38 43 44
721 11 39 53 54 55
722 11 39 53 54 73
723 16 39 53 41 42
724 16 39 53 41 43
725 16 38 39 53 54
726 16 38 39 53 41
727 8 38 43 41 42
728 12 38 43 41 53
729 17 37 36 35 44
730 8 37 38 39 40
731 12 37 38 39 53
732 17 37 38 43 41
733 17 37 38 43 44
734 17 36 35 44 43
735 17 36 37 38 39
736 17 36 37 38 43
737 10 35 34 33 45
738 17 35 36 37 38
739 17 35 44 43 41
740 17 35 44 43 38
741 17 34 33 45 46
742 17 34 35 36 37
743 17 34 35 44 43
744 10 33 34 35 36
745 10 33 34 35 44
746 17 32 31 30 46
747 10 32 33 34 35
748 17 32 33 45 46
749 17 31 30 46 45
750 17 31 32 33 34
751 17 31 32 33 45
752 17 30 31 32 33
753 17 30 46 45 33
754 8 29 28 30 31
755 8 29 28 30 46
756 17 28 30 31 32
757 17 28 30 46 45
758 16 28 11 27 46
759 17 27 46 45 33
760 17 27 46 30 28
761 17 27 46 30 31
762 16 27 11 28 29
763 16 27 11 28 30
764 8 26 27 46 45
765 8 26 27 46 30
766 16 26 27 11 28
767 11 12 10 11 27
768 11 12 10 11 28
769 17 11 10 12 13
770 12 11 27 46 45
771 12 11 27 46 30
772 12 11 28 30 31
773 12 11 28 30 46
774 16 10 11 27 26
775 16 10 11 27 46
776 16 10 11 28 29
777 16 10 11 28 30
778 17 9 8 7 13
779 11 9 10 11 27
780 11 9 10 11 28
781 17 9 10 12 13
782 17 8 7 13 12
783 17 8 9 10 11
784 17 8 9 10 12
785 10 7 6 5 14
786 17 7 8 9 10
787 17 7 13 12 10
788 17 6 5 14 15
789 17 6 7 8 9
790 17 6 7 13 12
791 10 5 6 7 8
792 10 5 6 7 13
793 17 4 3 2 15
794 10 4 5 6 7
795 17 4 5 14 15
796 17 3 2 15 14
797 17 3 4 5 6
798 17 3 4 5 14
799 17 2 3 4 5
800 17 2 15 14 5
801 17 1 2 3 4
802 17 1 2 15 14
803 17 884 883 885 886
804 17 882 881 880 886
805 17 882 883 885 886
806 17 881 880 886 885
807 17 881 882 883 884
808 17 881 882 883 885
809 10 880 879 878 887
810 17 880 881 882 883
811 17 880 886 885 883
812 17 879 878 887 888
813 17 879 880 881 882
814 17 879 880 886 885
815 10 878 879 880 881
816 10 878 879 880 886
817 17 877 876 875 888
818 10 877 878 879 880
819 17 877 878 887 888
820 17 876 875 888 887
821 17 876 877 878 879
822 17 876 877 878 887
823 17 875 876 877 878
824 17 875 888 887 878
825 17 874 875 876 877
826 17 874 875 888 887
827 12 865 864 862 874
828 16 864 862 874 875
829 12 864 859 860 874
830 8 863 862 864 865
831 16 863 862 874 875
832 11 862 874 875 876
833 11 862 874 875 888
834 8 861 860 859 864
835 16 861 860 874 875
836 16 861 860 874 862
837 17 860 859 864 862
838 17 860 859 864 865
839 11 860 874 875 876
840 11 860 874 875 888
841 16 860 874 862 863
842 16 860 874 862 864
843 16 859 860 874 875
844 16 859 860 874 862
845 8 859 864 862 863
846 12 859 864 862 874
847 17 858 857 856 865
848 8 858 859 860 861
849 12 858 859 860 874
850 17 858 859 864 862
851 17 858 859 864 865
852 17 857 856 865 864
853 17 857 858 859 860
854 17 857 858 859 864
855 10 856 855 854 866
856 17 856 857 858 859
857 17 856 865 864 862
858 17 856 865 864 859
859 17 855 854 866 867
860 17 855 856 857 858
861 17 855 856 865 864
862 10 854 855 856 857
863 10 854 855 856 865
864 17 853 852 851 867
865 10 853 854 855 856
866 17 853 854 866 867
867 17 852 851 867 866
868 17 852 853 854 855
869 17 852 853 854 866
870 17 851 852 853 854
871 17 851 867 866 854
872 8 850 849 851 852
873 8 850 849 851 867
874 17 849 851 852 853
875 17 849 851 867 866
876 16 849 817 848 867
877 17 848 867 866 854
878 17 848 867 851 849
879 17 848 867 851 852
880 16 848 817 849 850
881 16 848 817 849 851
882 8 847 848 867 866
883 8 847 848 867 851
884 16 847 848 817 849
885 17 829 828 830 831
886 17 829 828 830 832
887 17 827 826 825 832
888 17 827 828 830 831
889 17 827 828 830 832
890 17 826 825 832 830
891 17 826 827 828 829
892 17 826 827 828 830
893 17 825 826 827 828
894 17 825 832 830 828
895 17 825 832 830 831
896 17 824 825 826 827
897 17 824 825 832 830
898 7 823 824 825 826
899 7 823 824 825 832
900 12 822 820 819 833
901 6 822 823 824 825
902 8 821 820 819 833
903 16 821 820 822 823
904 13 820 822 823 824
905 5 820 822 823 824
906 3 820 822 823 824
907 16 819 820 822 823
908 11 818 816 817 848
909 11 818 816 817 849
910 8 818 819 820 821
911 12 818 819 820 822
912 17 817 816 818 819
913 12 817 848 867 866
914 12 817 848 867 851
915 12 817 849 851 852
916 12 817 849 851 867
917 17 816 815 814 833
918 16 816 817 848 847
919 16 816 817 848 867
920 16 816 817 849 850
921 16 816 817 849 851
922 17 816 818 819 820
923 17 816 818 819 833
924 17 815 814 833 819
925 11 815 816 817 848
926 11 815 816 817 849
927 17 815 816 818 819
928 17 814 815 816 817
929 17 814 815 816 818
930 17 814 833 819 818
931 17 814 833 819 820
932 17 813 814 815 816
933 17 813 814 833 819
934 12 804 803 801 813
935 16 803 801 813 814
936 12 803 798 799 813
937 8 802 801 803 804
938 16 802 801 813 814
939 11 801 813 814 815
940 11 801 813 814 833
941 8 800 799 798 803
942 16 800 799 813 814
943 16 800 799 813 801
944 17 799 798 803 801
945 17 799 798 803 804
946 11 799 813 814 815
947 11 799 813 814 833
948 16 799 813 801 802
949 16 799 813 801 803
950 16 798 799 813 814
951 16 798 799 813 801
952 8 798 803 801 802
953 12 798 803 801 813
954 17 797 796 795 804
955 8 797 798 799 800
956 12 797 798 799 813
957 17 797 798 803 801
958 17 797 798 803 804
959 17 796 795 804 803
960 17 796 797 798 799
961 17 796 797 798 803
962 10 795 794 793 805
963 17 795 796 797 798
964 17 795 804 803 801
965 17 795 804 803 798
966 17 794 793 805 806
967 17 794 795 796 797
968 17 794 795 804 803
969 10 793 794 795 796
970 10 793 794 795 804
971 17 792 791 790 806
972 10 792 793 794 795
973 17 792 793 805 806
974 17 791 790 806 805
975 17 791 792 793 794
976 17 791 792 793 805
977 17 790 791 792 793
978 17 790 806 805 793
979 8 789 788 790 791
980 8 789 788 790 806
981 17 788 790 791 792
982 17 788 790 806 805
983 16 788 773 787 806
984 17 787 806 805 793
985 17 787 806 790 788
986 17 787 806 790 791
987 16 787 773 788 789
988 16 787 773 788 790
989 8 786 787 806 805
990 8 786 787 806 790
991 16 786 787 773 788
992 11 774 772 773 787
993 11 774 772 773 788
994 17 773 772 774 775
995 12 773 787 806 805
996 12 773 787 806 790
997 12 773 788 790 791
998 12 773 788 790 806
999 16 772 773 787 786
1000 16 772 773 787 806
1001 16 772 773 788 789
1002 16 772 773 788 790
1003 17 771 770 769 775
1004 11 771 772 773 787
1005 11 771 772 773 788
1006 17 771 772 774 775
1007 17 770 769 775 774
1008 17 770 771 772 773
1009 17 770 771 772 774
1010 10 769 768 767 776
1011 17 769 770 771 772
1012 17 769 775 774 772
1013 17 768 767 776 777
1014 17 768 769 770 771
1015 17 768 769 775 774
1016 10 767 768 769 770
1017 10 767 768 769 775
1018 17 766 765 764 777
1019 10 766 767 768 769
1020 17 766 767 776 777
1021 17 765 764 777 776
1022 17 765 766 767 768
1023 17 765 766 767 776
1024 17 764 765 766 767
1025 17 764 777 776 767
1026 17 763 764 765 766
1027 17 763 764 777 776
1028 12 754 753 751 763
1029 16 753 751 763 764
1030 12 753 748 749 763
1031 8 752 751 753 754
1032 16 752 751 763 764
1033 11 751 763 764 765
1034 11 751 763 764 777
1035 8 750 749 748 753
1036 16 750 749 763 764
1037 16 750 749 763 751
1038 17 749 748 753 751
1039 17 749 748 753 754
1040 11 749 763 764 765
1041 11 749 763 764 777
1042 16 749 763 751 752
1043 16 749 763 751 753
1044 16 748 749 763 764
1045 16 748 749 763 751
1046 8 748 753 751 752
1047 12 748 753 751 763
1048 17 747 746 745 754
1049 8 747 748 749 750
1050 12 747 748 749 763
1051 17 747 748 753 751
1052 17 747 748 753 754
1053 17 746 745 754 753
1054 17 746 747 748 749
1055 17 746 747 748 753
1056 10 745 744 743 755
1057 17 745 746 747 748
1058 17 745 754 753 751
1059 17 745 754 753 748
1060 17 744 743 755 756
1061 17 744 745 746 747
1062 17 744 745 754 753
1063 10 743 744 745 746
1064 10 743 744 745 754
1065 17 742 741 740 756
1066 10 742 743 744 745
1067 17 742 743 755 756
1068 17 741 740 756 755
1069 17 741 742 743 744
1070 17 741 742 743 755
1071 17 740 741 742 743
1072 17 740 756 755 743
1073 8 739 738 740 741
1074 8 739 738 740 756
1075 17 738 740 741 742
1076 17 738 740 756 755
1077 16 738 723 737 756
1078 17 737 756 755 743
1079 17 737 756 740 738
1080 17 737 756 740 741
1081 16 737 723 738 739
1082 16 737 723 738 740
1083 8 736 737 756 755
1084 8 736 737 756 740
1085 16 736 737 723 738
1086 11 724 722 723 737
1087 11 724 722 723 738
1088 17 723 722 724 725
1089 12 723 737 756 755
1090 12 723 737 756 740
1091 12 723 738 740 741
1092 12 723 738 740 756
1093 16 722 723 737 736
1094 16 722 723 737 756
1095 16 722 723 738 739
1096 16 722 723 738 740
1097 17 721 720 719 725
1098 11 721 722 723 737
1099 11 721 722 723 738
1100 17 721 722 724 725
1101 17 720 719 725 724
1102 17 720 721 722 723
1103 17 720 721 722 724
1104 10 719 718 717 726
1105 17 719 720 721 722
1106 17 719 725 724 722
1107 17 718 717 726 727
1108 17 718 719 720 721
1109 17 718 719 725 724
1110 10 717 718 719 720
1111 10 717 718 719 725
1112 17 716 715 714 727
1113 10 716 717 718 719
1114 17 716 717 726 727
1115 17 715 714 727 726
1116 17 715 716 717 718
1117 17 715 716 717 726
1118 17 714 715 716 717
1119 17 714 727 726 717
1120 17 713 714 715 716
1121 17 713 714 727 726
1122 12 704 703 701 713
1123 16 703 701 713 714
1124 12 703 698 699 713
1125 8 702 701 703 704
1126 16 702 701 713 714
1127 11 701 713 714 715
1128 11 701 713 714 727
1129 8 700 699 698 703
1130 16 700 699 713 714
1131 16 700 699 713 701
1132 17 699 698 703 701
1133 17 699 698 703 704
1134 11 699 713 714 715
1135 11 699 713 714 727
1136 16 699 713 701 702
1137 16 699 713 701 703
1138 16 698 699 713 714
1139 16 698 699 713 701
1140 8 698 703 701 702
1141 12 698 703 701 713
1142 17 697 696 695 704
1143 8 697 698 699 700
1144 12 697 698 699 713
1145 17 697 698 703 701
1146 17 697 698 703 704
1147 17 696 695 704 703
1148 17 696 697 698 699
1149 17 696 697 698 703
1150 10 695 694 693 705
1151 17 695 696 697 698
1152 17 695 704 703 701
1153 17 695 704 703 698
1154 17 694 693 705 706
1155 17 694 695 696 697
1156 17 694 695 704 703
1157 10 693 694 695 696
1158 10 693 694 695 704
1159 17 692 691 690 706
1160 10 692 693 694 695
1161 17 692 693 705 706
1162 17 691 690 706 705
1163 17 691 692 693 694
1164 17 691 692 693 705
1165 17 690 691 692 693
1166 17 690 706 705 693
1167 8 689 688 690 691
1168 8 689 688 690 706
1169 17 688 690 691 692
1170 17 688 690 706 705
1171 16 688 673 687 706
1172 17 687 706 705 693
1173 17 687 706 690 688
1174 17 687 706 690 691
1175 16 687 673 688 689
1176 16 687 673 688 690
1177 8 686 687 706 705
1178 8 686 687 706 690
1179 16 686 687 673 688
1180 11 674 672 673 687
1181 11 674 672 673 688
1182 17 673 672 674 675
1183 12 673 687 706 705
1184 12 673 687 706 690
1185 12 673 688 690 691
1186 12 673 688 690 706
1187 16 672 673 687 686
1188 16 672 673 687 706
1189 16 672 673 688 689
1190 16 672 673 688 690
1191 17 671 670 669 675
1192 11 671 672 673 687
1193 11 671 672 673 688
1194 17 671 672 674 675
1195 17 670 669 675 674
1196 17 670 671 672 673
1197 17 670 671 672 674
1198 10 669 668 667 676
1199 17 669 670 671 672
1200 17 669 675 674 672
1201 17 668 667 676 677
1202 17 668 669 670 671
1203 17 668 669 675 674
1204 10 667 668 669 670
1205 10 667 668 669 675
1206 17 666 665 664 677
1207 10 666 667 668 669
1208 17 666 667 676 677
1209 17 665 664 677 676
1210 17 665 666 667 668
1211 17 665 666 667 676
1212 17 664 665 666 667
1213 17 664 677 676 667
1214 17 663 664 665 666
1215 17 663 664 677 676
1216 12 654 653 651 663
1217 16 653 651 663 664
1218 12 653 648 649 663
1219 8 652 651 653 654
1220 16 652 651 663 664
1221 11 651 663 664 665
1222 11 651 663 664 677
1223 8 650 649 648 653
1224 16 650 649 663 664
1225 16 650 649 663 651
1226 17 649 648 653 651
1227 17 649 648 653 654
1228 11 649 663 664 665
1229 11 649 663 664 677
1230 16 649 663 651 652
1231 16 649 663 651 653
1232 16 648 649 663 664
1233 16 648 649 663 651
1234 8 648 653 651 652
1235 12 648 653 651 663
1236 17 647 646 645 654
1237 8 647 648 649 650
1238 12 647 648 649 663
1239 17 647 648 653 651
1240 17 647 648 653 654
1241 17 646 645 654 653
1242 17 646 647 648 649
1243 17 646 647 648 653
1244 10 645 644 643 655
1245 17 645 646 647 648
1246 17 645 654 653 651
1247 17 645 654 653 648
1248 17 644 643 655 656
1249 17 644 645 646 647
1250 17 644 645 654 653
1251 10 643 644 645 646
1252 10 643 644 645 654
1253 17 642 641 640 656
1254 10 642 643 644 645
1255 17 642 643 655 656
1256 17 641 640 656 655
1257 17 641 642 643 644
1258 17 641 642 643 655
1259 17 640 641 642 643
1260 17 640 656 655 643
1261 8 639 638 640 641
1262 8 639 638 640 656
1263 17 638 640 641 642
1264 17 638 640 656 655
1265 16 638 623 637 656
1266 17 637 656 655 643
1267 17 637 656 640 638
1268 17 637 656 640 641
1269 16 637 623 638 639
1270 16 637 623 638 640
1271 8 636 637 656 655
1272 8 636 637 656 640
1273 16 636 637 623 638
1274 11 624 622 623 637
1275 11 624 622 623 638
1276 17 623 622 624 625
1277 12 623 637 656 655
1278 12 623 637 656 640
1279 12 623 638 640 641
1280 12 623 638 640 656
1281 16 622 623 637 636
1282 16 622 623 637 656
1283 16 622 623 638 639
1284 16 622 623 638 640
1285 17 621 620 619 625
1286 11 621 622 623 637
1287 11 621 622 623 638
1288 17 621 622 624 625
1289 17 620 619 625 624
1290 17 620 621 622 623
1291 17 620 621 622 624
1292 10 619 618 617 626
1293 17 619 620 621 622
1294 17 619 625 624 622
1295 17 618 617 626 627
1296 17 618 619 620 621
1297 17 618 619 625 624
1298 10 617 618 619 620
1299 10 617 618 619 625
1300 17 616 615 614 627
1301 10 616 617 618 619
1302 17 616 617 626 627
1303 17 615 614 627 626
1304 17 615 616 617 618
1305 17 615 616 617 626
1306 17 614 615 616 617
1307 17 614 627 626 617
1308 17 613 614 615 616
1309 17 613 614 627 626
1310 12 604 603 601 613
1311 16 603 601 613 614
1312 12 603 598 599 613
1313 8 602 601 603 604
1314 16 602 601 613 614
1315 11 601 613 614 615
1316 11 601 613 614 627
1317 8 600 599 598 603
1318 16 600 599 613 614
1319 16 600 599 613 601
1320 17 599 598 603 601
1321 17 599 598 603 604
1322 11 599 613 614 615
1323 11 599 613 614 627
1324 16 599 613 601 602
1325 16 599 613 601 603
1326 16 598 599 613 614
1327 16 598 599 613 601
1328 8 598 603 601 602
1329 12 598 603 601 613
1330 17 597 596 595 604
1331 8 597 598 599 600
1332 12 597 598 599 613
1333 17 597 598 603 601
1334 17 597 598 603 604
1335 17 596 595 604 603
1336 17 596 597 598 599
1337 17 596 597 598 603
1338 10 595 594 593 605
1339 17 595 596 597 598
1340 17 595 604 603 601
1341 17 595 604 603 598
1342 17 594 593 605 606
1343 17 594 595 596 597
1344 17 594 595 604 603
1345 10 593 594 595 596
1346 10 593 594 595 604
1347 17 592 591 590 606
1348 10 592 593 594 595
1349 17 592 593 605 606
1350 17 591 590 606 605
1351 17 591 592 593 594
1352 17 591 592 593 605
1353 17 590 591 592 593
1354 17 590 606 605 593
1355 8 589 588 590 591
1356 8 589 588 590 606
1357 17 588 590 591 592
1358 17 588 590 606 605
1359 16 588 573 587 606
1360 17 587 606 605 593
1361 17 587 606 590 588
1362 17 587 606 590 591
1363 16 587 573 588 589
1364 16 587 573 588 590
1365 8 586 587 606 605
1366 8 586 587 606 590
1367 16 586 587 573 588
1368 11 574 572 573 587
1369 11 574 572 573 588
1370 17 573 572 574 575
1371 12 573 587 606 605
1372 12 573 587 606 590
1373 12 573 588 590 591
1374 12 573 588 590 606
1375 16 572 573 587 586
1376 16 572 573 587 606
1377 16 572 573 588 589
1378 16 572 573 588 590
1379 17 571 570 569 575
1380 11 571 572 573 587
1381 11 571 572 573 588
1382 17 571 572 574 575
1383 17 570 569 575 574
1384 17 570 571 572 573
1385 17 570 571 572 574
1386 10 569 568 567 576
1387 17 569 570 571 572
1388 17 569 575 574 572
1389 17 568 567 576 577
1390 17 568 569 570 571
1391 17 568 569 575 574
1392 10 567 568 569 570
1393 10 567 568 569 575
1394 17 566 565 564 577
1395 10 566 567 568 569
1396 17 566 567 576 577
1397 17 565 564 577 576
1398 17 565 566 567 568
1399 17 565 566 567 576
1400 17 564 565 566 567
1401 17 564 577 576 567
1402 17 563 564 565 566
1403 17 563 564 577 576
1404 12 554 553 551 563
1405 16 553 551 563 564
1406 12 553 548 549 563
1407 8 552 551 553 554
1408 16 552 551 563 564
1409 11 551 563 564 565
1410 11 551 563 564 577
1411 8 550 549 548 553
1412 16 550 549 563 564
1413 16 550 549 563 551
1414 17 549 548 553 551
1415 17 549 548 553 554
1416 11 549 563 564 565
1417 11 549 563 564 577
1418 16 549 563 551 552
1419 16 549 563 551 553
1420 16 548 549 563 564
1421 16 548 549 563 551
1422 8 548 553 551 552
1423 12 548 553 551 563
1424 17 547 546 545 554
1425 8 547 548 549 550
1426 12 547 548 549 563
1427 17 547 548 553 551
1428 17 547 548 553 554
1429 17 546 545 554 553
1430 17 546 547 548 549
1431 17 546 547 548 553
1432 10 545 544 543 555
1433 17 545 546 547 548
1434 17 545 554 553 551
1435 17 545 554 553 548
1436 17 544 543 555 556
1437 17 544 545 546 547
1438 17 544 545 554 553
1439 10 543 544 545 546
1440 10 543 544 545 554
1441 17 542 541 540 556
1442 10 542 543 544 545
1443 17 542 543 555 556
1444 17 541 540 556 555
1445 17 541 542 543 544
1446 17 541 542 543 555
1447 17 540 541 542 543
1448 17 540 556 555 543
1449 8 539 538 540 541
1450 8 539 538 540 556
1451 17 538 540 541 542
1452 17 538 540 556 555
1453 16 538 506 537 556
1454 17 537 556 555 543
1455 17 537 556 540 538
1456 17 537 556 540 541
1457 16 537 506 538 539
1458 16 537 506 538 540
1459 8 536 537 556 555
1460 8 536 537 556 540
1461 16 536 537 506 538
1462 17 518 517 519 520
1463 17 518 517 519 521
1464 17 516 515 514 521
1465 17 516 517 519 520
1466 17 516 517 519 521
1467 17 515 514 521 519
1468 17 515 516 517 518
1469 17 515 516 517 519
1470 17 514 515 516 517
1471 17 514 521 519 517
1472 17 514 521 519 520
1473 17 513 514 515 516
1474 17 513 514 521 519
1475 7 512 513 514 515
1476 7 512 513 514 521
1477 12 511 509 508 522
1478 6 511 512 513 514
1479 8 510 509 508 522
1480 16 510 509 511 512
1481 13 509 511 512 513
1482 5 509 511 512 513
1483 3 509 511 512 513
1484 16 508 509 511 512
1485 11 507 505 506 537
1486 11 507 505 506 538
1487 8 507 508 509 510
1488 12 507 508 509 511
1489 17 506 505 507 508
1490 12 506 537 556 555
1491 12 506 537 556 540
1492 12 506 538 540 541
1493 12 506 538 540 556
1494 17 505 504 503 522
1495 16 505 506 537 536
1496 16 505 506 537 556
1497 16 505 506 538 539
1498 16 505 506 538 540
1499 17 505 507 508 509
1500 17 505 507 508 522
1501 17 504 503 522 508
1502 11 504 505 506 537
1503 11 504 505 506 538
1504 17 504 505 507 508
1505 17 503 504 505 506
1506 17 503 504 505 507
1507 17 503 522 508 507
1508 17 503 522 508 509
1509 17 502 503 504 505
1510 17 502 503 522 508
1511 12 493 492 490 502
1512 16 492 490 502 503
1513 12 492 487 488 502
1514 8 491 490 492 493
1515 16 491 490 502 503
1516 11 490 502 503 504
1517 11 490 502 503 522
1518 8 489 488 487 492
1519 16 489 488 502 503
1520 16 489 488 502 490
1521 17 488 487 492 490
1522 17 488 487 492 493
1523 11 488 502 503 504
1524 11 488 502 503 522
1525 16 488 502 490 491
1526 16 488 502 490 492
1527 16 487 488 502 503
1528 16 487 488 502 490
1529 8 487 492 490 491
1530 12 487 492 490 502
1531 17 486 485 484 493
1532 8 486 487 488 489
1533 12 486 487 488 502
1534 17 486 487 492 490
1535 17 486 487 492 493
1536 17 485 484 493 492
1537 17 485 486 487 488
1538 17 485 486 487 492
1539 10 484 483 482 494
1540 17 484 485 486 487
1541 17 484 493 492 490
1542 17 484 493 492 487
1543 17 483 482 494 495
1544 17 483 484 485 486
1545 17 483 484 493 492
1546 10 482 483 484 485
1547 10 482 483 484 493
1548 17 481 480 479 495
1549 10 481 482 483 484
1550 17 481 482 494 495
1551 17 480 479 495 494
1552 17 480 481 482 483
1553 17 480 481 482 494
1554 17 479 480 481 482
1555 17 479 495 494 482
1556 8 478 477 479 480
1557 8 478 477 479 495
1558 17 477 479 480 481
1559 17 477 479 495 494
1560 16 477 460 476 495
1561 17 476 495 494 482
1562 17 476 495 479 477
1563 17 476 495 479 480
1564 16 476 460 477 478
1565 16 476 460 477 479
1566 8 475 476 495 494
1567 8 475 476 495 479
1568 16 475 476 460 477
1569 11 461 459 460 476
1570 11 461 459 460 477
1571 17 460 459 461 462
1572 12 460 476 495 494
1573 12 460 476 495 479
1574 12 460 477 479 480
1575 12 460 477 479 495
1576 16 459 460 476 475
1577 16 459 460 476 495
1578 16 459 460 477 478
1579 16 459 460 477 479
1580 17 458 457 456 462
1581 11 458 459 460 476
1582 11 458 459 460 477
1583 17 458 459 461 462
1584 17 457 456 462 461
1585 17 457 458 459 460
1586 17 457 458 459 461
1587 10 456 455 454 463
1588 17 456 457 458 459
1589 17 456 462 461 459
1590 17 455 454 463 464
1591 17 455 456 457 458
1592 17 455 456 462 461
1593 10 454 455 456 457
1594 10 454 455 456 462
1595 17 453 452 451 464
1596 10 453 454 455 456
1597 17 453 454 463 464
1598 17 452 451 464 463
1599 17 452 453 454 455
1600 17 452 453 454 463
1601 17 451 452 453 454
1602 17 451 464 463 454
1603 17 450 451 452 453
1604 17 450 451 464 463
1605 17 1333 1332 1334 1335
1606 17 1331 1330 1329 1335
1607 17 1331 1332 1334 1335
1608 17 1330 1329 1335 1334
1609 17 1330 1331 1332 1333
1610 17 1330 1331 1332 1334
1611 10 1329 1328 1327 1336
1612 17 1329 1330 1331 1332
1613 17 1329 1335 1334 1332
1614 17 1328 1327 1336 1337
1615 17 1328 1329 1330 1331
1616 17 1328 1329 1335 1334
1617 10 1327 1328 1329 1330
1618 10 1327 1328 1329 1335
1619 17 1326 1325 1324 1337
1620 10 1326 1327 1328 1329
1621 17 1326 1327 1336 1337
1622 17 1325 1324 1337 1336
1623 17 1325 1326 1327 1328
1624 17 1325 1326 1327 1336
1625 17 1324 1325 1326 1327
1626 17 1324 1337 1336 1327
1627 17 1323 1324 1325 1326
1628 17 1323 1324 1337 1336
1629 12 1314 1313 1311 1323
1630 16 1313 1311 1323 1324
1631 12 1313 1308 1309 1323
1632 8 1312 1311 1313 1314
1633 16 1312 1311 1323 1324
1634 11 1311 1323 1324 1325
1635 11 1311 1323 1324 1337
1636 8 1310 1309 1308 1313
1637 16 1310 1309 1323 1324
1638 16 1310 1309 1323 1311
1639 17 1309 1308 1313 1311
1640 17 1309 1308 1313 1314
1641 11 1309 1323 1324 1325
1642 11 1309 1323 1324 1337
1643 16 1309 1323 1311 1312
1644 16 1309 1323 1311 1313
1645 16 1308 1309 1323 1324
1646 16 1308 1309 1323 1311
1647 8 1308 1313 1311 1312
1648 12 1308 1313 1311 1323
1649 17 1307 1306 1305 1314
1650 8 1307 1308 1309 1310
1651 12 1307 1308 1309 1323
1652 17 1307 1308 1313 1311
1653 17 1307 1308 1313 1314
1654 17 1306 1305 1314 1313
1655 17 1306 1307 1308 1309
1656 17 1306 1307 1308 1313
1657 10 1305 1304 1303 1315
1658 17 1305 1306 1307 1308
1659 17 1305 1314 1313 1311
1660 17 1305 1314 1313 1308
1661 17 1304 1303 1315 1316
1662 17 1304 1305 1306 1307
1663 17 1304 1305 1314 1313
1664 10 1303 1304 1305 1306
1665 10 1303 1304 1305 1314
1666 17 1302 1301 1300 1316
1667 10 1302 1303 1304 1305
1668 17 1302 1303 1315 1316
1669 17 1301 1300 1316 1315
1670 17 1301 1302 1303 1304
1671 17 1301 1302 1303 1315
1672 17 1300 1301 1302 1303
1673 17 1300 1316 1315 1303
1674 8 1299 1298 1300 1301
1675 8 1299 1298 1300 1316
1676 17 1298 1300 1301 1302
1677 17 1298 1300 1316 1315
1678 16 1298 1266 1297 1316
1679 17 1297 1316 1315 1303
1680 17 1297 1316 1300 1298
1681 17 1297 1316 1300 1301
1682 16 1297 1266 1298 1299
1683 16 1297 1266 1298 1300
1684 8 1296 1297 1316 1315
1685 8 1296 1297 1316 1300
1686 16 1296 1297 1266 1298
1687 17 1278 1277 1279 1280
1688 17 1278 1277 1279 1281
1689 17 1276 1275 1274 1281
1690 17 1276 1277 1279 1280
1691 17 1276 1277 1279 1281
1692 17 1275 1274 1281 1279
1693 17 1275 1276 1277 1278
1694 17 1275 1276 1277 1279
1695 17 1274 1275 1276 1277
1696 17 1274 1281 1279 1277
1697 17 1274 1281 1279 1280
1698 17 1273 1274 1275 1276
1699 17 1273 1274 1281 1279
1700 7 1272 1273 1274 1275
1701 7 1272 1273 1274 1281
1702 12 1271 1269 1268 1282
1703 6 1271 1272 1273 1274
1704 8 1270 1269 1268 1282
1705 16 1270 1269 1271 1272
1706 13 1269 1271 1272 1273
1707 5 1269 1271 1272 1273
1708 3 1269 1271 1272 1273
1709 16 1268 1269 1271 1272
1710 11 1267 1265 1266 1297
1711 11 1267 1265 1266 1298
1712 8 1267 1268 1269 1270
1713 12 1267 1268 1269 1271
1714 17 1266 1265 1267 1268
1715 12 1266 1297 1316 1315
1716 12 1266 1297 1316 1300
1717 12 1266 1298 1300 1301
1718 12 1266 1298 1300 1316
1719 17 1265 1264 1263 1282
1720 16 1265 1266 1297 1296
1721 16 1265 1266 1297 1316
1722 16 1265 1266 1298 1299
1723 16 1265 1266 1298 1300
1724 17 1265 1267 1268 1269
1725 17 1265 1267 1268 1282
1726 17 1264 1263 1282 1268
1727 11 1264 1265 1266 1297
1728 11 1264 1265 1266 1298
1729 17 1264 1265 1267 1268
1730 17 1263 1264 1265 1266
1731 17 1263 1264 1265 1267
1732 17 1263 1282 1268 1267
1733 17 1263 1282 1268 1269
1734 17 1262 1263 1264 1265
1735 17 1262 1263 1282 1268
1736 12 1253 1252 1250 1262
1737 16 1252 1250 1262 1263
1738 12 1252 1247 1248 1262
1739 8 1251 1250 1252 1253
1740 16 1251 1250 1262 1263
1741 11 1250 1262 1263 1264
1742 11 1250 1262 1263 1282
1743 8 1249 1248 1247 1252
1744 16 1249 1248 1262 1263
1745 16 1249 1248 1262 1250
1746 17 1248 1247 1252 1250
1747 17 1248 1247 1252 1253
1748 11 1248 1262 1263 1264
1749 11 1248 1262 1263 1282
1750 16 1248 1262 1250 1251
1751 16 1248 1262 1250 1252
1752 16 1247 1248 1262 1263
1753 16 1247 1248 1262 1250
1754 8 1247 1252 1250 1251
1755 12 1247 1252 1250 1262
1756 17 1246 1245 1244 1253
1757 8 1246 1247 1248 1249
1758 12 1246 1247 1248 1262
1759 17 1246 1247 1252 1250
1760 17 1246 1247 1252 1253
1761 17 1245 1244 1253 1252
1762 17 1245 1246 1247 1248
1763 17 1245 1246 1247 1252
1764 10 1244 1243 1242 1254
1765 17 1244 1245 1246 1247
1766 17 1244 1253 1252 1250
1767 17 1244 1253 1252 1247
1768 17 1243 1242 1254 1255
1769 17 1243 1244 1245 1246
1770 17 1243 1244 1253 1252
1771 10 1242 1243 1244 1245
1772 10 1242 1243 1244 1253
1773 17 1241 1240 1239 1255
1774 10 1241 1242 1243 1244
1775 17 1241 1242 1254 1255
1776 17 1240 1239 1255 1254
1777 17 1240 1241 1242 1243
1778 17 1240 1241 1242 1254
1779 17 1239 1240 1241 1242
1780 17 1239 1255 1254 1242
1781 8 1238 1237 1239 1240
1782 8 1238 1237 1239 1255
1783 17 1237 1239 1240 1241
1784 17 1237 1239 1255 1254
1785 16 1237 1222 1236 1255
1786 17 1236 1255 1254 1242
1787 17 1236 1255 1239 1237
1788 17 1236 1255 1239 1240
1789 16 1236 1222 1237 1238
1790 16 1236 1222 1237 1239
1791 8 1235 1236 1255 1254
1792 8 1235 1236 1255 1239
1793 16 1235 1236 1222 1237
1794 11 1223 1221 1222 1236
1795 11 1223 1221 1222 1237
1796 17 1222 1221 1223 1224
1797 12 1222 1236 1255 1254
1798 12 1222 1236 1255 1239
1799 12 1222 1237 1239 1240
1800 12 1222 1237 1239 1255
1801 16 1221 1222 1236 1235
1802 16 1221 1222 1236 1255
1803 16 1221 1222 1237 1238
1804 16 1221 1222 1237 1239
1805 17 1220 1219 1218 1224
1806 11 1220 1221 1222 1236
1807 11 1220 1221 1222 1237
1808 17 1220 1221 1223 1224
1809 17 1219 1218 1224 1223
1810 17 1219 1220 1221 1222
1811 17 1219 1220 1221 1223
1812 10 1218 1217 1216 1225
1813 17 1218 1219 1220 1221
1814 17 1218 1224 1223 1221
1815 17 1217 1216 1225 1226
1816 17 1217 1218 1219 1220
1817 17 1217 1218 1224 1223
1818 10 1216 1217 1218 1219
1819 10 1216 1217 1218 1224
1820 17 1215 1214 1213 1226
1821 10 1215 1216 1217 1218
1822 17 1215 1216 1225 1226
1823 17 1214 1213 1226 1225
1824 17 1214 1215 1216 1217
1825 17 1214 1215 1216 1225
1826 17 1213 1214 1215 1216
1827 17 1213 1226 1225 1216
1828 17 1212 1213 1214 1215
1829 17 1212 1213 1226 1225
1830 12 1203 1202 1200 1212
1831 16 1202 1200 1212 1213
1832 12 1202 1197 1198 1212
1833 8 1201 1200 1202 1203
1834 16 1201 1200 1212 1213
1835 11 1200 1212 1213 1214
1836 11 1200 1212 1213 1226
1837 8 1199 1198 1197 1202
1838 16 1199 1198 1212 1213
1839 16 1199 1198 1212 1200
1840 17 1198 1197 1202 1200
1841 17 1198 1197 1202 1203
1842 11 1198 1212 1213 1214
1843 11 1198 1212 1213 1226
1844 16 1198 1212 1200 1201
1845 16 1198 1212 1200 1202
1846 16 1197 1198 1212 1213
1847 16 1197 1198 1212 1200
1848 8 1197 1202 1200 1201
1849 12 1197 1202 1200 1212
1850 17 1196 1195 1194 1203
1851 8 1196 1197 1198 1199
1852 12 1196 1197 1198 1212
1853 17 1196 1197 1202 1200
1854 17 1196 1197 1202 1203
1855 17 1195 1194 1203 1202
1856 17 1195 1196 1197 1198
1857 17 1195 1196 1197 1202
1858 10 1194 1193 1192 1204
1859 17 1194 1195 1196 1197
1860 17 1194 1203 1202 1200
1861 17 1194 1203 1202 1197
1862 17 1193 1192 1204 1205
1863 17 1193 1194 1195 1196
1864 17 1193 1194 1203 1202
1865 10 1192 1193 1194 1195
1866 10 1192 1193 1194 1203
1867 17 1191 1190 1189 1205
1868 10 1191 1192 1193 1194
1869 17 1191 1192 1204 1205
1870 17 1190 1189 1205 1204
1871 17 1190 1191 1192 1193
1872 17 1190 1191 1192 1204
1873 17 1189 1190 1191 1192
1874 17 1189 1205 1204 1192
1875 8 1188 1187 1189 1190
1876 8 1188 1187 1189 1205
1877 17 1187 1189 1190 1191
1878 17 1187 1189 1205 1204
1879 16 1187 1172 1186 1205
1880 17 1186 1205 1204 1192
1881 17 1186 1205 1189 1187
1882 17 1186 1205 1189 1190
1883 16 1186 1172 1187 1188
1884 16 1186 1172 1187 1189
1885 8 1185 1186 1205 1204
1886 8 1185 1186 1205 1189
1887 16 1185 1186 1172 1187
1888 11 1173 1171 1172 1186
1889 11 1173 1171 1172 1187
1890 17 1172 1171 1173 1174
1891 12 1172 1186 1205 1204
1892 12 1172 1186 1205 1189
1893 12 1172 1187 1189 1190
1894 12 1172 1187 1189 1205
1895 16 1171 1172 1186 1185
1896 16 1171 1172 1186 1205
1897 16 1171 1172 1187 1188
1898 16 1171 1172 1187 1189
1899 17 1170 1169 1168 1174
1900 11 1170 1171 1172 1186
1901 11 1170 1171 1172 1187
1902 17 1170 1171 1173 1174
1903 17 1169 1168 1174 1173
1904 17 1169 1170 1171 1172
1905 17 1169 1170 1171 1173
1906 10 1168 1167 1166 1175
1907 17 1168 1169 1170 1171
1908 17 1168 1174 1173 1171
1909 17 1167 1166 1175 1176
1910 17 1167 1168 1169 1170
1911 17 1167 1168 1174 1173
1912 10 1166 1167 1168 1169
1913 10 1166 1167 1168 1174
1914 17 1165 1164 1163 1176
1915 10 1165 1166 1167 1168
1916 17 1165 1166 1175 1176
1917 17 1164 1163 1176 1175
1918 17 1164 1165 1166 1167
1919 17 1164 1165 1166 1175
1920 17 1163 1164 1165 1166
1921 17 1163 1176 1175 1166
1922 17 1162 1163 1164 1165
1923 17 1162 1163 1176 1175
1924 12 1153 1152 1150 1162
1925 16 1152 1150 1162 1163
1926 12 1152 1147 1148 1162
1927 8 1151 1150 1152 1153
1928 16 1151 1150 1162 1163
1929 11 1150 1162 1163 1164
1930 11 1150 1162 1163 1176
1931 8 1149 1148 1147 1152
1932 16 1149 1148 1162 1163
1933 16 1149 1148 1162 1150
1934 17 1148 1147 1152 1150
1935 17 1148 1147 1152 1153
1936 11 1148 1162 1163 1164
1937 11 1148 1162 1163 1176
1938 16 1148 1162 1150 1151
1939 16 1148 1162 1150 1152
1940 16 1147 1148 1162 1163
1941 16 1147 1148 1162 1150
1942 8 1147 1152 1150 1151
1943 12 1147 1152 1150 1162
1944 17 1146 1145 1144 1153
1945 8 1146 1147 1148 1149
1946 12 1146 1147 1148 1162
1947 17 1146 1147 1152 1150
1948 17 1146 1147 1152 1153
1949 17 1145 1144 1153 1152
1950 17 1145 1146 1147 1148
1951 17 1145 1146 1147 1152
1952 10 1144 1143 1142 1154
1953 17 1144 1145 1146 1147
1954 17 1144 1153 1152 1150
1955 17 1144 1153 1152 1147
1956 17 1143 1142 1154 1155
1957 17 1143 1144 1145 1146
1958 17 1143 1144 1153 1152
1959 10 1142 1143 1144 1145
1960 10 1142 1143 1144 1153
1961 17 1141 1140 1139 1155
1962 10 1141 1142 1143 1144
1963 17 1141 1142 1154 1155
1964 17 1140 1139 1155 1154
1965 17 1140 1141 1142 1143
1966 17 1140 1141 1142 1154
1967 17 1139 1140 1141 1142
1968 17 1139 1155 1154 1142
1969 8 1138 1137 1139 1140
1970 8 1138 1137 1139 1155
1971 17 1137 1139 1140 1141
1972 17 1137 1139 1155 1154
1973 16 1137 1122 1136 1155
1974 17 1136 1155 1154 1142
1975 17 1136 1155 1139 1137
1976 17 1136 1155 1139 1140
1977 16 1136 1122 1137 1138
1978 16 1136 1122 1137 1139
1979 8 1135 1136 1155 1154
1980 8 1135 1136 1155 1139
1981 16 1135 1136 1122 1137
1982 11 1123 1121 1122 1136
1983 11 1123 1121 1122 1137
1984 17 1122 1121 1123 1124
1985 12 1122 1136 1155 1154
1986 12 1122 1136 1155 1139
1987 12 1122 1137 1139 1140
1988 12 1122 1137 1139 1155
1989 16 1121 1122 1136 1135
1990 16 1121 1122 1136 1155
1991 16 1121 1122 1137 1138
1992 16 1121 1122 1137 1139
1993 17 1120 1119 1118 1124
1994 11 1120 1121 1122 1136
1995 11 1120 1121 1122 1137
1996 17 1120 1121 1123 1124
1997 17 1119 1118 1124 1123
1998 17 1119 1120 1121 1122
1999 17 1119 1120 1121 1123
2000 10 1118 1117 1116 1125
2001 17 1118 1119 1120 1121
2002 17 1118 1124 1123 1121
2003 17 1117 1116 1125 1126
2004 17 1117 1118 1119 1120
2005 17 1117 1118 1124 1123
2006 10 1116 1117 1118 1119
2007 10 1116 1117 1118 1124
2008 17 1115 1114 1113 1126
2009 10 1115 1116 1117 1118
2010 17 1115 1116 1125 1126
2011 17 1114 1113 1126 1125
2012 17 1114 1115 1116 1117
2013 17 1114 1115 1116 1125
2014 17 1113 1114 1115 1116
2015 17 1113 1126 1125 1116
2016 17 1112 1113 1114 1115
2017 17 1112 1113 1126 1125
2018 12 1103 1102 1100 1112
2019 16 1102 1100 1112 1113
2020 12 1102 1097 1098 1112
2021 8 1101 1100 1102 1103
2022 16 1101 1100 1112 1113
2023 11 1100 1112 1113 1114
2024 11 1100 1112 1113 1126
2025 8 1099 1098 1097 1102
2026 16 1099 1098 1112 1113
2027 16 1099 1098 1112 1100
2028 17 1098 1097 1102 1100
2029 17 1098 1097 1102 1103
2030 11 1098 1112 1113 1114
2031 11 1098 1112 1113 1126
2032 16 1098 1112 1100 1101
2033 16 1098 1112 1100 1102
2034 16 1097 1098 1112 1113
2035 16 1097 1098 1112 1100
2036 8 1097 1102 1100 1101
2037 12 1097 1102 1100 1112
2038 17 1096 1095 1094 1103
2039 8 1096 1097 1098 1099
2040 12 1096 1097 1098 1112
2041 17 1096 1097 1102 1100
2042 17 1096 1097 1102 1103
2043 17 1095 1094 1103 1102
2044 17 1095 1096 1097 1098
2045 17 1095 1096 1097 1102
2046 10 1094 1093 1092 1104
2047 17 1094 1095 1096 1097
2048 17 1094 1103 1102 1100
2049 17 1094 1103 1102 1097
2050 17 1093 1092 1104 1105
2051 17 1093 1094 1095 1096
2052 17 1093 1094 1103 1102
2053 10 1092 1093 1094 1095
2054 10 1092 1093 1094 1103
2055 17 1091 1090 1089 1105
2056 10 1091 1092 1093 1094
2057 17 1091 1092 1104 1105
2058 17 1090 1089 1105 1104
2059 17 1090 1091 1092 1093
2060 17 1090 1091 1092 1104
2061 17 1089 1090 1091 1092
2062 17 1089 1105 1104 1092
2063 8 1088 1087 1089 1090
2064 8 1088 1087 1089 1105
2065 17 1087 1089 1090 1091
2066 17 1087 1089 1105 1104
2067 16 1087 1072 1086 1105
2068 17 1086 1105 1104 1092
2069 17 1086 1105 1089 1087
2070 17 1086 1105 1089 1090
2071 16 1086 1072 1087 1088
2072 16 1086 1072 1087 1089
2073 8 1085 1086 1105 1104
2074 8 1085 1086 1105 1089
2075 16 1085 1086 1072 1087
2076 11 1073 1071 1072 1086
2077 11 1073 1071 1072 1087
2078 17 1072 1071 1073 1074
2079 12 1072 1086 1105 1104
2080 12 1072 1086 1105 1089
2081 12 1072 1087 1089 1090
2082 12 1072 1087 1089 1105
2083 16 1071 1072 1086 1085
2084 16 1071 1072 1086 1105
2085 16 1071 1072 1087 1088
2086 16 1071 1072 1087 1089
2087 17 1070 1069 1068 1074
2088 11 1070 1071 1072 1086
2089 11 1070 1071 1072 1087
2090 17 1070 1071 1073 1074
2091 17 1069 1068 1074 1073
2092 17 1069 1070 1071 1072
2093 17 1069 1070 1071 1073
2094 10 1068 1067 1066 1075
2095 17 1068 1069 1070 1071
2096 17 1068 1074 1073 1071
2097 17 1067 1066 1075 1076
2098 17 1067 1068 1069 1070
2099 17 1067 1068 1074 1073
2100 10 1066 1067 1068 1069
2101 10 1066 1067 1068 1074
2102 17 1065 1064 1063 1076
2103 10 1065 1066 1067 1068
2104 17 1065 1066 1075 1076
2105 17 1064 1063 1076 1075
2106 17 1064 1065 1066 1067
2107 17 1064 1065 1066 1075
2108 17 1063 1064 1065 1066
2109 17 1063 1076 1075 1066
2110 17 1062 1063 1064 1065
2111 17 1062 1063 1076 1075
2112 12 1053 1052 1050 1062
2113 16 1052 1050 1062 1063
2114 12 1052 1047 1048 1062
2115 8 1051 1050 1052 1053
2116 16 1051 1050 1062 1063
2117 11 1050 1062 1063 1064
2118 11 1050 1062 1063 1076
2119 8 1049 1048 1047 1052
2120 16 1049 1048 1062 1063
2121 16 1049 1048 1062 1050
2122 17 1048 1047 1052 1050
2123 17 1048 1047 1052 1053
2124 11 1048 1062 1063 1064
2125 11 1048 1062 1063 1076
2126 16 1048 1062 1050 1051
2127 16 1048 1062 1050 1052
2128 16 1047 1048 1062 1063
2129 16 1047 1048 1062 1050
2130 8 1047 1052 1050 1051
2131 12 1047 1052 1050 1062
2132 17 1046 1045 1044 1053
2133 8 1046 1047 1048 1049
2134 12 1046 1047 1048 1062
2135 17 1046 1047 1052 1050
2136 17 1046 1047 1052 1053
2137 17 1045 1044 1053 1052
2138 17 1045 1046 1047 1048
2139 17 1045 1046 1047 1052
2140 10 1044 1043 1042 1054
2141 17 1044 1045 1046 1047
2142 17 1044 1053 1052 1050
2143 17 1044 1053 1052 1047
2144 17 1043 1042 1054 1055
2145 17 1043 1044 1045 1046
2146 17 1043 1044 1053 1052
2147 10 1042 1043 1044 1045
2148 10 1042 1043 1044 1053
2149 17 1041 1040 1039 1055
2150 10 1041 1042 1043 1044
2151 17 1041 1042 1054 1055
2152 17 1040 1039 1055 1054
2153 17 1040 1041 1042 1043
2154 17 1040 1041 1042 1054
2155 17 1039 1040 1041 1042
2156 17 1039 1055 1054 1042
2157 8 1038 1037 1039 1040
2158 8 1038 1037 1039 1055
2159 17 1037 1039 1040 1041
2160 17 1037 1039 1055 1054
2161 16 1037 1022 1036 1055
2162 17 1036 1055 1054 1042
2163 17 1036 1055 1039 1037
2164 17 1036 1055 1039 1040
2165 16 1036 1022 1037 1038
2166 16 1036 1022 1037 1039
2167 8 1035 1036 1055 1054
2168 8 1035 1036 1055 1039
2169 16 1035 1036 1022 1037
2170 11 1023 1021 1022 1036
2171 11 1023 1021 1022 1037
2172 17 1022 1021 1023 1024
2173 12 1022 1036 1055 1054
2174 12 1022 1036 1055 1039
2175 12 1022 1037 1039 1040
2176 12 1022 1037 1039 1055
2177 16 1021 1022 1036 1035
2178 16 1021 1022 1036 1055
2179 16 1021 1022 1037 1038
2180 16 1021 1022 1037 1039
2181 17 1020 1019 1018 1024
2182 11 1020 1021 1022 1036
2183 11 1020 1021 1022 1037
2184 17 1020 1021 1023 1024
2185 17 1019 1018 1024 1023
2186 17 1019 1020 1021 1022
2187 17 1019 1020 1021 1023
2188 10 1018 1017 1016 1025
2189 17 1018 1019 1020 1021
2190 17 1018 1024 1023 1021
2191 17 1017 1016 1025 1026
2192 17 1017 1018 1019 1020
2193 17 1017 1018 1024 1023
2194 10 1016 1017 1018 1019
2195 10 1016 1017 1018 1024
2196 17 1015 1014 1013 1026
2197 10 1015 1016 1017 1018
2198 17 1015 1016 1025 1026
2199 17 1014 1013 1026 1025
2200 17 1014 1015 1016 1017
2201 17 1014 1015 1016 1025
2202 17 1013 1014 1015 1016
2203 17 1013 1026 1025 1016
2204 17 1012 1013 1014 1015
2205 17 1012 1013 1026 1025
2206 12 1003 1002 1000 1012
2207 16 1002 1000 1012 1013
2208 12 1002 997 998 1012
2209 8 1001 1000 1002 1003
2210 16 1001 1000 1012 1013
2211 11 1000 1012 1013 1014
2212 11 1000 1012 1013 1026
2213 8 999 998 997 1002
2214 16 999 998 1012 1013
2215 16 999 998 1012 1000
2216 17 998 997 1002 1000
2217 17 998 997 1002 1003
2218 11 998 1012 1013 1014
2219 11 998 1012 1013 1026
2220 16 998 1012 1000 1001
2221 16 998 1012 1000 1002
2222 16 997 998 1012 1013
2223 16 997 998 1012 1000
2224 8 997 1002 1000 1001
2225 12 997 1002 1000 1012
2226 17 996 995 994 1003
2227 8 996 997 998 999
2228 12 996 997 998 1012
2229 17 996 997 1002 1000
2230 17 996 997 1002 1003
2231 17 995 994 1003 1002
2232 17 995 996 997 998
2233 17 995 996 997 1002
2234 10 994 993 992 1004
2235 17 994 995 996 997
2236 17 994 1003 1002 1000
2237 17 994 1003 1002 997
2238 17 993 992 1004 1005
2239 17 993 994 995 996
2240 17 993 994 1003 1002
2241 10 992 993 994 995
2242 10 992 993 994 1003
2243 17 991 990 989 1005
2244 10 991 992 993 994
2245 17 991 992 1004 1005
2246 17 990 989 1005 1004
2247 17 990 991 992 993
2248 17 990 991 992 1004
2249 17 989 990 991 992
2250 17 989 1005 1004 992
2251 8 988 987 989 990
2252 8 988 987 989 1005
2253 17 987 989 990 991
2254 17 987 989 1005 1004
2255 16 987 955 986 1005
2256 17 986 1005 1004 992
2257 17 986 1005 989 987
2258 17 986 1005 989 990
2259 16 986 955 987 988
2260 16 986 955 987 989
2261 8 985 986 1005 1004
2262 8 985 986 1005 989
2263 16 985 986 955 987
2264 17 967 966 968 969
2265 17 967 966 968 970
2266 17 965 964 963 970
2267 17 965 966 968 969
2268 17 965 966 968 970
2269 17 964 963 970 968
2270 17 964 965 966 967
2271 17 964 965 966 968
2272 17 963 964 965 966
2273 17 963 970 968 966
2274 17 963 970 968 969
2275 17 962 963 964 965
2276 17 962 963 970 968
2277 7 961 962 963 964
2278 7 961 962 963 970
2279 12 960 958 957 971
2280 6 960 961 962 963
2281 8 959 958 957 971
2282 16 959 958 960 961
2283 13 958 960 961 962
2284 5 958 960 961 962
2285 3 958 960 961 962
2286 16 957 958 960 961
2287 11 956 954 955 986
2288 11 956 954 955 987
2289 8 956 957 958 959
2290 12 956 957 958 960
2291 17 955 954 956 957
2292 12 955 986 1005 1004
2293 12 955 986 1005 989
2294 12 955 987 989 990
2295 12 955 987 989 1005
2296 17 954 953 952 971
2297 16 954 955 986 985
2298 16 954 955 986 1005
2299 16 954 955 987 988
2300 16 954 955 987 989
2301 17 954 956 957 958
2302 17 954 956 957 971
2303 17 953 952 971 957
2304 11 953 954 955 986
2305 11 953 954 955 987
2306 17 953 954 956 957
2307 17 952 953 954 955
2308 17 952 953 954 956
2309 17 952 971 957 956
2310 17 952 971 957 958
2311 17 951 952 953 954
2312 17 951 952 971 957
2313 12 942 941 939 951
2314 16 941 939 951 952
2315 12 941 936 937 951
2316 8 940 939 941 942
2317 16 940 939 951 952
2318 11 939 951 952 953
2319 11 939 951 952 971
2320 8 938 937 936 941
2321 16 938 937 951 952
2322 16 938 937 951 939
2323 17 937 936 941 939
2324 17 937 936 941 942
2325 11 937 951 952 953
2326 11 937 951 952 971
2327 16 937 951 939 940
2328 16 937 951 939 941
2329 16 936 937 951 952
2330 16 936 937 951 939
2331 8 936 941 939 940
2332 12 936 941 939 951
2333 17 935 934 933 942
2334 8 935 936 937 938
2335 12 935 936 937 951
2336 17 935 936 941 939
2337 17 935 936 941 942
2338 17 934 933 942 941
2339 17 934 935 936 937
2340 17 934 935 936 941
2341 10 933 932 931 943
2342 17 933 934 935 936
2343 17 933 942 941 939
2344 17 933 942 941 936
2345 17 932 931 943 944
2346 17 932 933 934 935
2347 17 932 933 942 941
2348 10 931 932 933 934
2349 10 931 932 933 942
2350 17 930 929 928 944
2351 10 930 931 932 933
2352 17 930 931 943 944
2353 17 929 928 944 943
2354 17 929 930 931 932
2355 17 929 930 931 943
2356 17 928 929 930 931
2357 17 928 944 943 931
2358 8 927 926 928 929
2359 8 927 926 928 944
2360 17 926 928 929 930
2361 17 926 928 944 943
2362 16 926 909 925 944
2363 17 925 944 943 931
2364 17 925 944 928 926
2365 17 925 944 928 929
2366 16 925 909 926 927
2367 16 925 909 926 928
2368 8 924 925 944 943
2369 8 924 925 944 928
2370 16 924 925 909 926
2371 11 910 908 909 925
2372 11 910 908 909 926
2373 17 909 908 910 911
2374 12 909 925 944 943
2375 12 909 925 944 928
2376 12 909 926 928 929
2377 12 909 926 928 944
2378 16 908 909 925 924
2379 16 908 909 925 944
2380 16 908 909 926 927
2381 16 908 909 926 928
2382 17 907 906 905 911
2383 11 907 908 909 925
2384 11 907 908 909 926
2385 17 907 908 910 911
2386 17 906 905 911 910
2387 17 906 907 908 909
2388 17 906 907 908 910
2389 10 905 904 903 912
2390 17 905 906 907 908
2391 17 905 911 910 908
2392 17 904 903 912 913
2393 17 904 905 906 907
2394 17 904 905 911 910
2395 10 903 904 905 906
2396 10 903 904 905 911
2397 17 902 901 900 913
2398 10 902 903 904 905
2399 17 902 903 912 913
2400 17 901 900 913 912
2401 17 901 902 903 904
2402 17 901 902 903 912
2403 17 900 901 902 903
2404 17 900 913 912 903
2405 17 899 900 901 902
2406 17 899 900 913 912
2407 17 1782 1781 1783 1784
2408 17 1780 1779 1778 1784
2409 17 1780 1781 1783 1784
2410 17 1779 1778 1784 1783
2411 17 1779 1780 1781 1782
2412 17 1779 1780 1781 1783
2413 10 1778 1777 1776 1785
2414 17 1778 1779 1780 1781
2415 17 1778 1784 1783 1781
2416 17 1777 1776 1785 1786
2417 17 1777 1778 1779 1780
2418 17 1777 1778 1784 1783
2419 10 1776 1777 1778 1779
2420 10 1776 1777 1778 1784
2421 17 1775 1774 1773 1786
2422 10 1775 1776 1777 1778
2423 17 1775 1776 1785 1786
2424 17 1774 1773 1786 1785
2425 17 1774 1775 1776 1777
2426 17 1774 1775 1776 1785
2427 17 1773 1774 1775 1776
2428 17 1773 1786 1785 1776
2429 17 1772 1773 1774 1775
2430 17 1772 1773 1786 1785
2431 12 1763 1762 1760 1772
2432 16 1762 1760 1772 1773
2433 12 1762 1757 1758 1772
2434 8 1761 1760 1762 1763
2435 16 1761 1760 1772 1773
2436 11 1760 1772 1773 1774
2437 11 1760 1772 1773 1786
2438 8 1759 1758 1757 1762
2439 16 1759 1758 1772 1773
2440 16 1759 1758 1772 1760
2441 17 1758 1757 1762 1760
2442 17 1758 1757 1762 1763
2443 11 1758 1772 1773 1774
2444 11 1758 1772 1773 1786
2445 16 1758 1772 1760 1761
2446 16 1758 1772 1760 1762
2447 16 1757 1758 1772 1773
2448 16 1757 1758 1772 1760
2449 8 1757 1762 1760 1761
2450 12 1757 1762 1760 1772
2451 17 1756 1755 1754 1763
2452 8 1756 1757 1758 1759
2453 12 1756 1757 1758 1772
2454 17 1756 1757 1762 1760
2455 17 1756 1757 1762 1763
2456 17 1755 1754 1763 1762
2457 17 1755 1756 1757 1758
2458 17 1755 1756 1757 1762
2459 10 1754 1753 1752 1764
2460 17 1754 1755 1756 1757
2461 17 1754 1763 1762 1760
2462 17 1754 1763 1762 1757
2463 17 1753 1752 1764 1765
2464 17 1753 1754 1755 1756
2465 17 1753 1754 1763 1762
2466 10 1752 1753 1754 1755
2467 10 1752 1753 1754 1763
2468 17 1751 1750 1749 1765
2469 10 1751 1752 1753 1754
2470 17 1751 1752 1764 1765
2471 17 1750 1749 1765 1764
2472 17 1750 1751 1752 1753
2473 17 1750 1751 1752 1764
2474 17 1749 1750 1751 1752
2475 17 1749 1765 1764 1752
2476 8 1748 1747 1749 1750
2477 8 1748 1747 1749 1765
2478 17 1747 1749 1750 1751
2479 17 1747 1749 1765 1764
2480 16 1747 1715 1746 1765
2481 17 1746 1765 1764 1752
2482 17 1746 1765 1749 1747
2483 17 1746 1765 1749 1750
2484 16 1746 1715 1747 1748
2485 16 1746 1715 1747 1749
2486 8 1745 1746 1765 1764
2487 8 1745 1746 1765 1749
2488 16 1745 1746 1715 1747
2489 17 1727 1726 1728 1729
2490 17 1727 1726 1728 1730
2491 17 1725 1724 1723 1730
2492 17 1725 1726 1728 1729
2493 17 1725 1726 1728 1730
2494 17 1724 1723 1730 1728
2495 17 1724 1725 1726 1727
2496 17 1724 1725 1726 1728
2497 17 1723 1724 1725 1726
2498 17 1723 1730 1728 1726
2499 17 1723 1730 1728 1729
2500 17 1722 1723 1724 1725
2501 17 1722 1723 1730 1728
2502 7 1721 1722 1723 1724
2503 7 1721 1722 1723 1730
2504 12 1720 1718 1717 1731
2505 6 1720 1721 1722 1723
2506 8 1719 1718 1717 1731
2507 16 1719 1718 1720 1721
2508 13 1718 1720 1721 1722
2509 5 1718 1720 1721 1722
2510 3 1718 1720 1721 1722
2511 16 1717 1718 1720 1721
2512 11 1716 1714 1715 1746
2513 11 1716 1714 1715 1747
2514 8 1716 1717 1718 1719
2515 12 1716 1717 1718 1720
2516 17 1715 1714 1716 1717
2517 12 1715 1746 1765 1764
2518 12 1715 1746 1765 1749
2519 12 1715 1747 1749 1750
2520 12 1715 1747 1749 1765
2521 17 1714 1713 1712 1731
2522 16 1714 1715 1746 1745
2523 16 1714 1715 1746 1765
2524 16 1714 1715 1747 1748
2525 16 1714 1715 1747 1749
2526 17 1714 1716 1717 1718
2527 17 1714 1716 1717 1731
2528 17 1713 1712 1731 1717
2529 11 1713 1714 1715 1746
2530 11 1713 1714 1715 1747
2531 17 1713 1714 1716 1717
2532 17 1712 1713 1714 1715
2533 17 1712 1713 1714 1716
2534 17 1712 1731 1717 1716
2535 17 1712 1731 1717 1718
2536 17 1711 1712 1713 1714
2537 17 1711 1712 1731 1717
2538 12 1702 1701 1699 1711
2539 16 1701 1699 1711 1712
2540 12 1701 1696 1697 1711
2541 8 1700 1699 1701 1702
2542 16 1700 1699 1711 1712
2543 11 1699 1711 1712 1713
2544 11 1699 1711 1712 1731
2545 8 1698 1697 1696 1701
2546 16 1698 1697 1711 1712
2547 16 1698 1697 1711 1699
2548 17 1697 1696 1701 1699
2549 17 1697 1696 1701 1702
2550 11 1697 1711 1712 1713
2551 11 1697 1711 1712 1731
2552 16 1697 1711 1699 1700
2553 16 1697 1711 1699 1701
2554 16 1696 1697 1711 1712
2555 16 1696 1697 1711 1699
2556 8 1696 1701 1699 1700
2557 12 1696 1701 1699 1711
2558 17 1695 1694 1693 1702
2559 8 1695 1696 1697 1698
2560 12 1695 1696 1697 1711
2561 17 1695 1696 1701 1699
2562 17 1695 1696 1701 1702
2563 17 1694 1693 1702 1701
2564 17 1694 1695 1696 1697
2565 17 1694 1695 1696 1701
2566 10 1693 1692 1691 1703
2567 17 1693 1694 1695 1696
2568 17 1693 1702 1701 1699
2569 17 1693 1702 1701 1696
2570 17 1692 1691 1703 1704
2571 17 1692 1693 1694 1695
2572 17 1692 1693 1702 1701
2573 10 1691 1692 1693 1694
2574 10 1691 1692 1693 1702
2575 17 1690 1689 1688 1704
2576 10 1690 1691 1692 1693
2577 17 1690 1691 1703 1704
2578 17 1689 1688 1704 1703
2579 17 1689 1690 1691 1692
2580 17 1689 1690 1691 1703
2581 17 1688 1689 1690 1691
2582 17 1688 1704 1703 1691
2583 8 1687 1686 1688 1689
2584 8 1687 1686 1688 1704
2585 17 1686 1688 1689 1690
2586 17 1686 1688 1704 1703
2587 16 1686 1671 1685 1704
2588 17 1685 1704 1703 1691
2589 17 1685 1704 1688 1686
2590 17 1685 1704 1688 1689
2591 16 1685 1671 1686 1687
2592 16 1685 1671 1686 1688
2593 8 1684 1685 1704 1703
2594 8 1684 1685 1704 1688
2595 16 1684 1685 1671 1686
2596 11 1672 1670 1671 1685
2597 11 1672 1670 1671 1686
2598 17 1671 1670 1672 1673
2599 12 1671 1685 1704 1703
2600 12 1671 1685 1704 1688
2601 12 1671 1686 1688 1689
2602 12 1671 1686 1688 1704
2603 16 1670 1671 1685 1684
2604 16 1670 1671 1685 1704
2605 16 1670 1671 1686 1687
2606 16 1670 1671 1686 1688
2607 17 1669 1668 1667 1673
2608 11 1669 1670 1671 1685
2609 11 1669 1670 1671 1686
2610 17 1669 1670 1672 1673
2611 17 1668 1667 1673 1672
2612 17 1668 1669 1670 1671
2613 17 1668 1669 1670 1672
2614 10 1667 1666 1665 1674
2615 17 1667 1668 1669 1670
2616 17 1667 1673 1672 1670
2617 17 1666 1665 1674 1675
2618 17 1666 1667 1668 1669
2619 17 1666 1667 1673 1672
2620 10 1665 1666 1667 1668
2621 10 1665 1666 1667 1673
2622 17 1664 1663 1662 1675
2623 10 1664 1665 1666 1667
2624 17 1664 1665 1674 1675
2625 17 1663 1662 1675 1674
2626 17 1663 1664 1665 1666
2627 17 1663 1664 1665 1674
2628 17 1662 1663 1664 1665
2629 17 1662 1675 1674 1665
2630 17 1661 1662 1663 1664
2631 17 1661 1662 1675 1674
2632 12 1652 1651 1649 1661
2633 16 1651 1649 1661 1662
2634 12 1651 1646 1647 1661
2635 8 1650 1649 1651 1652
2636 16 1650 1649 1661 1662
2637 11 1649 1661 1662 1663
2638 11 1649 1661 1662 1675
2639 8 1648 1647 1646 1651
2640 16 1648 1647 1661 1662
2641 16 1648 1647 1661 1649
2642 17 1647 1646 1651 1649
2643 17 1647 1646 1651 1652
2644 11 1647 1661 1662 1663
2645 11 1647 1661 1662 1675
2646 16 1647 1661 1649 1650
2647 16 1647 1661 1649 1651
2648 16 1646 1647 1661 1662
2649 16 1646 1647 1661 1649
2650 8 1646 1651 1649 1650
2651 12 1646 1651 1649 1661
2652 17 1645 1644 1643 1652
2653 8 1645 1646 1647 1648
2654 12 1645 1646 1647 1661
2655 17 1645 1646 1651 1649
2656 17 1645 1646 1651 1652
2657 17 1644 1643 1652 1651
2658 17 1644 1645 1646 1647
2659 17 1644 1645 1646 1651
2660 10 1643 1642 1641 1653
2661 17 1643 1644 1645 1646
2662 17 1643 1652 1651 1649
2663 17 1643 1652 1651 1646
2664 17 1642 1641 1653 1654
2665 17 1642 1643 1644 1645
2666 17 1642 1643 1652 1651
2667 10 1641 1642 1643 1644
2668 10 1641 1642 1643 1652
2669 17 1640 1639 1638 1654
2670 10 1640 1641 1642 1643
2671 17 1640 1641 1653 1654
2672 17 1639 1638 1654 1653
2673 17 1639 1640 1641 1642
2674 17 1639 1640 1641 1653
2675 17 1638 1639 1640 1641
2676 17 1638 1654 1653 1641
2677 8 1637 1636 1638 1639
2678 8 1637 1636 1638 1654
2679 17 1636 1638 1639 1640
2680 17 1636 1638 1654 1653
2681 16 1636 1621 1635 1654
2682 17 1635 1654 1653 1641
2683 17 1635 1654 1638 1636
2684 17 1635 1654 1638 1639
2685 16 1635 1621 1636 1637
2686 16 1635 1621 1636 1638
2687 8 1634 1635 1654 1653
2688 8 1634 1635 1654 1638
2689 16 1634 1635 1621 1636
2690 11 1622 1620 1621 1635
2691 11 1622 1620 1621 1636
2692 17 1621 1620 1622 1623
2693 12 1621 1635 1654 1653
2694 12 1621 1635 1654 1638
2695 12 1621 1636 1638 1639
2696 12 1621 1636 1638 1654
2697 16 1620 1621 1635 1634
2698 16 1620 1621 1635 1654
2699 16 1620 1621 1636 1637
2700 16 1620 1621 1636 1638
2701 17 1619 1618 1617 1623
2702 11 1619 1620 1621 1635
2703 11 1619 1620 1621 1636
2704 17 1619 1620 1622 1623
2705 17 1618 1617 1623 1622
2706 17 1618 1619 1620 1621
2707 17 1618 1619 1620 1622
2708 10 1617 1616 1615 1624
2709 17 1617 1618 1619 1620
2710 17 1617 1623 1622 1620
2711 17 1616 1615 1624 1625
2712 17 1616 1617 1618 1619
2713 17 1616 1617 1623 1622
2714 10 1615 1616 1617 1618
2715 10 1615 1616 1617 1623
2716 17 1614 1613 1612 1625
2717 10 1614 1615 1616 1617
2718 17 1614 1615 1624 1625
2719 17 1613 1612 1625 1624
2720 17 1613 1614 1615 1616
2721 17 1613 1614 1615 1624
2722 17 1612 1613 1614 1615
2723 17 1612 1625 1624 1615
2724 17 1611 1612 1613 1614
2725 17 1611 1612 1625 1624
2726 12 1602 1601 1599 1611
2727 16 1601 1599 1611 1612
2728 12 1601 1596 1597 1611
2729 8 1600 1599 1601 1602
2730 16 1600 1599 1611 1612
2731 11 1599 1611 1612 1613
2732 11 1599 1611 1612 1625
2733 8 1598 1597 1596 1601
2734 16 1598 1597 1611 1612
2735 16 1598 1597 1611 1599
2736 17 1597 1596 1601 1599
2737 17 1597 1596 1601 1602
2738 11 1597 1611 1612 1613
2739 11 1597 1611 1612 1625
2740 16 1597 1611 1599 1600
2741 16 1597 1611 1599 1601
2742 16 1596 1597 1611 1612
2743 16 1596 1597 1611 1599
2744 8 1596 1601 1599 1600
2745 12 1596 1601 1599 1611
2746 17 1595 1594 1593 1602
2747 8 1595 1596 1597 1598
2748 12 1595 1596 1597 1611
2749 17 1595 1596 1601 1599
2750 17 1595 1596 1601 1602
2751 17 1594 1593 1602 1601
2752 17 1594 1595 1596 1597
2753 17 1594 1595 1596 1601
2754 10 1593 1592 1591 1603
2755 17 1593 1594 1595 1596
2756 17 1593 1602 1601 1599
2757 17 1593 1602 1601 1596
2758 17 1592 1591 1603 1604
2759 17 1592 1593 1594 1595
2760 17 1592 1593 1602 1601
2761 10 1591 1592 1593 1594
2762 10 1591 1592 1593 1602
2763 17 1590 1589 1588 1604
2764 10 1590 1591 1592 1593
2765 17 1590 1591 1603 1604
2766 17 1589 1588 1604 1603
2767 17 1589 1590 1591 1592
2768 17 1589 1590 1591 1603
2769 17 1588 1589 1590 1591
2770 17 1588 1604 1603 1591
2771 8 1587 1586 1588 1589
2772 8 1587 1586 1588 1604
2773 17 1586 1588 1589 1590
2774 17 1586 1588 1604 1603
2775 16 1586 1571 1585 1604
2776 17 1585 1604 1603 1591
2777 17 1585 1604 1588 1586
2778 17 1585 1604 1588 1589
2779 16 1585 1571 1586 1587
2780 16 1585 1571 1586 1588
2781 8 1584 1585 1604 1603
2782 8 1584 1585 1604 1588
2783 16 1584 1585 1571 1586
2784 11 1572 1570 1571 1585
2785 11 1572 1570 1571 1586
2786 17 1571 1570 1572 1573
2787 12 1571 1585 1604 1603
2788 12 1571 1585 1604 1588
2789 12 1571 1586 1588 1589
2790 12 1571 1586 1588 1604
2791 16 1570 1571 1585 1584
2792 16 1570 1571 1585 1604
2793 16 1570 1571 1586 1587
2794 16 1570 1571 1586 1588
2795 17 1569 1568 1567 1573
2796 11 1569 1570 1571 1585
2797 11 1569 1570 1571 1586
2798 17 1569 1570 1572 1573
2799 17 1568 1567 1573 1572
2800 17 1568 1569 1570 1571
2801 17 1568 1569 1570 1572
2802 10 1567 1566 1565 1574
2803 17 1567 1568 1569 1570
2804 17 1567 1573 1572 1570
2805 17 1566 1565 1574 1575
2806 17 1566 1567 1568 1569
2807 17 1566 1567 1573 1572
2808 10 1565 1566 1567 1568
2809 10 1565 1566 1567 1573
2810 17 1564 1563 1562 1575
2811 10 1564 1565 1566 1567
2812 17 1564 1565 1574 1575
2813 17 1563 1562 1575 1574
2814 17 1563 1564 1565 1566
2815 17 1563 1564 1565 1574
2816 17 1562 1563 1564 1565
2817 17 1562 1575 1574 1565
2818 17 1561 1562 1563 1564
2819 17 1561 1562 1575 1574
2820 12 1552 1551 1549 1561
2821 16 1551 1549 1561 1562
2822 12 1551 1546 1547 1561
2823 8 1550 1549 1551 1552
2824 16 1550 1549 1561 1562
2825 11 1549 1561 1562 1563
2826 11 1549 1561 1562 1575
2827 8 1548 1547 1546 1551
2828 16 1548 1547 1561 1562
2829 16 1548 1547 1561 1549
2830 17 1547 1546 1551 1549
2831 17 1547 1546 1551 1552
2832 11 1547 1561 1562 1563
2833 11 1547 1561 1562 1575
2834 16 1547 1561 1549 1550
2835 16 1547 1561 1549 1551
2836 16 1546 1547 1561 1562
2837 16 1546 1547 1561 1549
2838 8 1546 1551 1549 1550
2839 12 1546 1551 1549 1561
2840 17 1545 1544 1543 1552
2841 8 1545 1546 1547 1548
2842 12 1545 1546 1547 1561
2843 17 1545 1546 1551 1549
2844 17 1545 1546 1551 1552
2845 17 1544 1543 1552 1551
2846 17 1544 1545 1546 1547
2847 17 1544 1545 1546 1551
2848 10 1543 1542 1541 1553
2849 17 1543 1544 1545 1546
2850 17 1543 1552 1551 1549
2851 17 1543 1552 1551 1546
2852 17 1542 1541 1553 1554
2853 17 1542 1543 1544 1545
2854 17 1542 1543 1552 1551
2855 10 1541 1542 1543 1544
2856 10 1541 1542 1543 1552
2857 17 1540 1539 1538 1554
2858 10 1540 1541 1542 1543
2859 17 1540 1541 1553 1554
2860 17 1539 1538 1554 1553
2861 17 1539 1540 1541 1542
2862 17 1539 1540 1541 1553
2863 17 1538 1539 1540 1541
2864 17 1538 1554 1553 1541
2865 8 1537 1536 1538 1539
2866 8 1537 1536 1538 1554
2867 17 1536 1538 1539 1540
2868 17 1536 1538 1554 1553
2869 16 1536 1521 1535 1554
2870 17 1535 1554 1553 1541
2871 17 1535 1554 1538 1536
2872 17 1535 1554 1538 1539
2873 16 1535 1521 1536 1537
2874 16 1535 1521 1536 1538
2875 8 1534 1535 1554 1553
2876 8 1534 1535 1554 1538
2877 16 1534 1535 1521 1536
2878 11 1522 1520 1521 1535
2879 11 1522 1520 1521 1536
2880 17 1521 1520 1522 1523
2881 12 1521 1535 1554 1553
2882 12 1521 1535 1554 1538
2883 12 1521 1536 1538 1539
2884 12 1521 1536 1538 1554
2885 16 1520 1521 1535 1534
2886 16 1520 1521 1535 1554
2887 16 1520 1521 1536 1537
2888 16 1520 1521 1536 1538
2889 17 1519 1518 1517 1523
2890 11 1519 1520 1521 1535
2891 11 1519 1520 1521 1536
2892 17 1519 1520 1522 1523
2893 17 1518 1517 1523 1522
2894 17 1518 1519 1520 1521
2895 17 1518 1519 1520 1522
2896 10 1517 1516 1515 1524
2897 17 1517 1518 1519 1520
2898 17 1517 1523 1522 1520
2899 17 1516 1515 1524 1525
2900 17 1516 1517 1518 1519
2901 17 1516 1517 1523 1522
2902 10 1515 1516 1517 1518
2903 10 1515 1516 1517 1523
2904 17 1514 1513 1512 1525
2905 10 1514 1515 1516 1517
2906 17 1514 1515 1524 1525
2907 17 1513 1512 1525 1524
2908 17 1513 1514 1515 1516
2909 17 1513 1514 1515 1524
2910 17 1512 1513 1514 1515
2911 17 1512 1525 1524 1515
2912 17 1511 1512 1513 1514
2913 17 1511 1512 1525 1524
2914 12 1502 1501 1499 1511
2915 16 1501 1499 1511 1512
2916 12 1501 1496 1497 1511
2917 8 1500 1499 1501 1502
2918 16 1500 1499 1511 1512
2919 11 1499 1511 1512 1513
2920 11 1499 1511 1512 1525
2921 8 1498 1497 1496 1501
2922 16 1498 1497 1511 1512
2923 16 1498 1497 1511 1499
2924 17 1497 1496 1501 1499
2925 17 1497 1496 1501 1502
2926 11 1497 1511 1512 1513
2927 11 1497 1511 1512 1525
2928 16 1497 1511 1499 1500
2929 16 1497 1511 1499 1501
2930 16 1496 1497 1511 1512
2931 16 1496 1497 1511 1499
2932 8 1496 1501 1499 1500
2933 12 1496 1501 1499 1511
2934 17 1495 1494 1493 1502
2935 8 1495 1496 1497 1498
2936 12 1495 1496 1497 1511
2937 17 1495 1496 1501 1499
2938 17 1495 1496 1501 1502
2939 17 1494 1493 1502 1501
2940 17 1494 1495 1496 1497
2941 17 1494 1495 1496 1501
2942 10 1493 1492 1491 1503
2943 17 1493 1494 1495 1496
2944 17 1493 1502 1501 1499
2945 17 1493 1502 1501 1496
2946 17 1492 1491 1503 1504
2947 17 1492 1493 1494 1495
2948 17 1492 1493 1502 1501
2949 10 1491 1492 1493 1494
2950 10 1491 1492 1493 1502
2951 17 1490 1489 1488 1504
2952 10 1490 1491 1492 1493
2953 17 1490 1491 1503 1504
2954 17 1489 1488 1504 1503
2955 17 1489 1490 1491 1492
2956 17 1489 1490 1491 1503
2957 17 1488 1489 1490 1491
2958 17 1488 1504 1503 1491
2959 8 1487 1486 1488 1489
2960 8 1487 1486 1488 1504
2961 17 1486 1488 1489 1490
2962 17 1486 1488 1504 1503
2963 16 1486 1471 1485 1504
2964 17 1485 1504 1503 1491
2965 17 1485 1504 1488 1486
2966 17 1485 1504 1488 1489
2967 16 1485 1471 1486 1487
2968 16 1485 1471 1486 1488
2969 8 1484 1485 1504 1503
2970 8 1484 1485 1504 1488
2971 16 1484 1485 1471 1486
2972 11 1472 1470 1471 1485
2973 11 1472 1470 1471 1486
2974 17 1471 1470 1472 1473
2975 12 1471 1485 1504 1503
2976 12 1471 1485 1504 1488
2977 12 1471 1486 1488 1489
2978 12 1471 1486 1488 1504
2979 16 1470 1471 1485 1484
2980 16 1470 1471 1485 1504
2981 16 1470 1471 1486 1487
2982 16 1470 1471 1486 1488
2983 17 1469 1468 1467 1473
2984 11 1469 1470 1471 1485
2985 11 1469 1470 1471 1486
2986 17 1469 1470 1472 1473
2987 17 1468 1467 1473 1472
2988 17 1468 1469 1470 1471
2989 17 1468 1469 1470 1472
2990 10 1467 1466 1465 1474
2991 17 1467 1468 1469 1470
2992 17 1467 1473 1472 1470
2993 17 1466 1465 1474 1475
2994 17 1466 1467 1468 1469
2995 17 1466 1467 1473 1472
2996 10 1465 1466 1467 1468
2997 10 1465 1466 1467 1473
2998 17 1464 1463 1462 1475
2999 10 1464 1465 1466 1467
3000 17 1464 1465 1474 1475
3001 17 1463 1462 1475 1474
3002 17 1463 1464 1465 1466
3003 17 1463 1464 1465 1474
3004 17 1462 1463 1464 1465
3005 17 1462 1475 1474 1465
3006 17 1461 1462 1463 1464
3007 17 1461 1462 1475 1474
3008 12 1452 1451 1449 1461
3009 16 1451 1449 1461 1462
3010 12 1451 1446 1447 1461
3011 8 1450 1449 1451 1452
3012 16 1450 1449 1461 1462
3013 11 1449 1461 1462 1463
3014 11 1449 1461 1462 1475
3015 8 1448 1447 1446 1451
3016 16 1448 1447 1461 1462
3017 16 1448 1447 1461 1449
3018 17 1447 1446 1451 1449
3019 17 1447 1446 1451 1452
3020 11 1447 1461 1462 1463
3021 11 1447 1461 1462 1475
3022 16 1447 1461 1449 1450
3023 16 1447 1461 1449 1451
3024 16 1446 1447 1461 1462
3025 16 1446 1447 1461 1449
3026 8 1446 1451 1449 1450
3027 12 1446 1451 1449 1461
3028 17 1445 1444 1443 1452
3029 8 1445 1446 1447 1448
3030 12 1445 1446 1447 1461
3031 17 1445 1446 1451 1449
3032 17 1445 1446 1451 1452
3033 17 1444 1443 1452 1451
3034 17 1444 1445 1446 1447
3035 17 1444 1445 1446 1451
3036 10 1443 1442 1441 1453
3037 17 1443 1444 1445 1446
3038 17 1443 1452 1451 1449
3039 17 1443 1452 1451 1446
3040 17 1442 1441 1453 1454
3041 17 1442 1443 1444 1445
3042 17 1442 1443 1452 1451
3043 10 1441 1442 1443 1444
3044 10 1441 1442 1443 1452
3045 17 1440 1439 1438 1454
3046 10 1440 1441 1442 1443
3047 17 1440 1441 1453 1454
3048 17 1439 1438 1454 1453
3049 17 1439 1440 1441 1442
3050 17 1439 1440 1441 1453
3051 17 1438 1439 1440 1441
3052 17 1438 1454 1453 1441
3053 8 1437 1436 1438 1439
3054 8 1437 1436 1438 1454
3055 17 1436 1438 1439 1440
3056 17 1436 1438 1454 1453
3057 16 1436 1404 1435 1454
3058 17 1435 1454 1453 1441
3059 17 1435 1454 1438 1436
3060 17 1435 1454 1438 1439
3061 16 1435 1404 1436 1437
3062 16 1435 1404 1436 1438
3063 8 1434 1435 1454 1453
3064 8 1434 1435 1454 1438
3065 16 1434 1435 1404 1436
3066 17 1416 1415 1417 1418
3067 17 1416 1415 1417 1419
3068 17 1414 1413 1412 1419
3069 17 1414 1415 1417 1418
3070 17 1414 1415 1417 1419
3071 17 1413 1412 1419 1417
3072 17 1413 1414 1415 1416
3073 17 1413 1414 1415 1417
3074 17 1412 1413 1414 1415
3075 17 1412 1419 1417 1415
3076 17 1412 1419 1417 1418
3077 17 1411 1412 1413 1414
3078 17 1411 1412 1419 1417
3079 7 1410 1411 1412 1413
3080 7 1410 1411 1412 1419
3081 12 1409 1407 1406 1420
3082 6 1409 1410 1411 1412
3083 8 1408 1407 1406 1420
3084 16 1408 1407 1409 1410
3085 13 1407 1409 1410 1411
3086 5 1407 1409 1410 1411
3087 3 1407 1409 1410 1411
3088 16 1406 1407 1409 1410
3089 11 1405 1403 1404 1435
3090 11 1405 1403 1404 1436
3091 8 1405 1406 1407 1408
3092 12 1405 1406 1407 1409
3093 17 1404 1403 1405 1406
3094 12 1404 1435 1454 1453
3095 12 1404 1435 1454 1438
3096 12 1404 1436 1438 1439
3097 12 1404 1436 1438 1454
3098 17 1403 1402 1401 1420
3099 16 1403 1404 1435 1434
3100 16 1403 1404 1435 1454
3101 16 1403 1404 1436 1437
3102 16 1403 1404 1436 1438
3103 17 1403 1405 1406 1407
3104 17 1403 1405 1406 1420
3105 17 1402 1401 1420 1406
3106 11 1402 1403 1404 1435
3107 11 1402 1403 1404 1436
3108 17 1402 1403 1405 1406
3109 17 1401 1402 1403 1404
3110 17 1401 1402 1403 1405
3111 17 1401 1420 1406 1405
3112 17 1401 1420 1406 1407
3113 17 1400 1401 1402 1403
3114 17 1400 1401 1420 1406
3115 12 1391 1390 1388 1400
3116 16 1390 1388 1400 1401
3117 12 1390 1385 1386 1400
3118 8 1389 1388 1390 1391
3119 16 1389 1388 1400 1401
3120 11 1388 1400 1401 1402
3121 11 1388 1400 1401 1420
3122 8 1387 1386 1385 1390
3123 16 1387 1386 1400 1401
3124 16 1387 1386 1400 1388
3125 17 1386 1385 1390 1388
3126 17 1386 1385 1390 1391
3127 11 1386 1400 1401 1402
3128 11 1386 1400 1401 1420
3129 16 1386 1400 1388 1389
3130 16 1386 1400 1388 1390
3131 16 1385 1386 1400 1401
3132 16 1385 1386 1400 1388
3133 8 1385 1390 1388 1389
3134 12 1385 1390 1388 1400
3135 17 1384 1383 1382 1391
3136 8 1384 1385 1386 1387
3137 12 1384 1385 1386 1400
3138 17 1384 1385 1390 1388
3139 17 1384 1385 1390 1391
3140 17 1383 1382 1391 1390
3141 17 1383 1384 1385 1386
3142 17 1383 1384 1385 1390
3143 10 1382 1381 1380 1392
3144 17 1382 1383 1384 1385
3145 17 1382 1391 1390 1388
3146 17 1382 1391 1390 1385
3147 17 1381 1380 1392 1393
3148 17 1381 1382 1383 1384
3149 17 1381 1382 1391 1390
3150 10 1380 1381 1382 1383
3151 10 1380 1381 1382 1391
3152 17 1379 1378 1377 1393
3153 10 1379 1380 1381 1382
3154 17 1379 1380 1392 1393
3155 17 1378 1377 1393 1392
3156 17 1378 1379 1380 1381
3157 17 1378 1379 1380 1392
3158 17 1377 1378 1379 1380
3159 17 1377 1393 1392 1380
3160 8 1376 1375 1377 1378
3161 8 1376 1375 1377 1393
3162 17 1375 1377 1378 1379
3163 17 1375 1377 1393 1392
3164 16 1375 1358 1374 1393
3165 17 1374 1393 1392 1380
3166 17 1374 1393 1377 1375
3167 17 1374 1393 1377 1378
3168 16 1374 1358 1375 1376
3169 16 1374 1358 1375 1377
3170 8 1373 1374 1393 1392
3171 8 1373 1374 1393 1377
3172 16 1373 1374 1358 1375
3173 11 1359 1357 1358 1374
3174 11 1359 1357 1358 1375
3175 17 1358 1357 1359 1360
3176 12 1358 1374 1393 1392
3177 12 1358 1374 1393 1377
3178 12 1358 1375 1377 1378
3179 12 1358 1375 1377 1393
3180 16 1357 1358 1374 1373
3181 16 1357 1358 1374 1393
3182 16 1357 1358 1375 1376
3183 16 1357 1358 1375 1377
3184 17 1356 1355 1354 1360
3185 11 1356 1357 1358 1374
3186 11 1356 1357 1358 1375
3187 17 1356 1357 1359 1360
3188 17 1355 1354 1360 1359
3189 17 1355 1356 1357 1358
3190 17 1355 1356 1357 1359
3191 10 1354 1353 1352 1361
3192 17 1354 1355 1356 1357
3193 17 1354 1360 1359 1357
3194 17 1353 1352 1361 1362
3195 17 1353 1354 1355 1356
3196 17 1353 1354 1360 1359
3197 10 1352 1353 1354 1355
3198 10 1352 1353 1354 1360
3199 17 1351 1350 1349 1362
3200 10 1351 1352 1353 1354
3201 17 1351 1352 1361 1362
3202 17 1350 1349 1362 1361
3203 17 1350 1351 1352 1353
3204 17 1350 1351 1352 1361
3205 17 1349 1350 1351 1352
3206 17 1349 1362 1361 1352
3207 17 1348 1349 1350 1351
3208 17 1348 1349 1362 1361
3209 17 2231 2230 2232 2233
3210 17 2229 2228 2227 2233
3211 17 2229 2230 2232 2233
3212 17 2228 2227 2233 2232
3213 17 2228 2229 2230 2231
3214 17 2228 2229 2230 2232
3215 10 2227 2226 2225 2234
3216 17 2227 2228 2229 2230
3217 17 2227 2233 2232 2230
3218 17 2226 2225 2234 2235
3219 17 2226 2227 2228 2229
3220 17 2226 2227 2233 2232
3221 10 2225 2226 2227 2228
3222 10 2225 2226 2227 2233
3223 17 2224 2223 2222 2235
3224 10 2224 2225 2226 2227
3225 17 2224 2225 2234 2235
3226 17 2223 2222 2235 2234
3227 17 2223 2224 2225 2226
3228 17 2223 2224 2225 2234
3229 17 2222 2223 2224 2225
3230 17 2222 2235 2234 2225
3231 17 2221 2222 2223 2224
3232 17 2221 2222 2235 2234
3233 12 2212 2211 2209 2221
3234 16 2211 2209 2221 2222
3235 12 2211 2206 2207 2221
3236 8 2210 2209 2211 2212
3237 16 2210 2209 2221 2222
3238 11 2209 2221 2222 2223
3239 11 2209 2221 2222 2235
3240 8 2208 2207 2206 2211
3241 16 2208 2207 2221 2222
3242 16 2208 2207 2221 2209
3243 17 2207 2206 2211 2209
3244 17 2207 2206 2211 2212
3245 11 2207 2221 2222 2223
3246 11 2207 2221 2222 2235
3247 16 2207 2221 2209 2210
3248 16 2207 2221 2209 2211
3249 16 2206 2207 2221 2222
3250 16 2206 2207 2221 2209
3251 8 2206 2211 2209 2210
3252 12 2206 2211 2209 2221
3253 17 2205 2204 2203 2212
3254 8 2205 2206 2207 2208
3255 12 2205 2206 2207 2221
3256 17 2205 2206 2211 2209
3257 17 2205 2206 2211 2212
3258 17 2204 2203 2212 2211
3259 17 2204 2205 2206 2207
3260 17 2204 2205 2206 2211
3261 10 2203 2202 2201 2213
3262 17 2203 2204 2205 2206
3263 17 2203 2212 2211 2209
3264 17 2203 2212 2211 2206
3265 17 2202 2201 2213 2214
3266 17 2202 2203 2204 2205
3267 17 2202 2203 2212 2211
3268 10 2201 2202 2203 2204
3269 10 2201 2202 2203 2212
3270 17 2200 2199 2198 2214
3271 10 2200 2201 2202 2203
3272 17 2200 2201 2213 2214
3273 17 2199 2198 2214 2213
3274 17 2199 2200 2201 2202
3275 17 2199 2200 2201 2213
3276 17 2198 2199 2200 2201
3277 17 2198 2214 2213 2201
3278 8 2197 2196 2198 2199
3279 8 2197 2196 2198 2214
3280 17 2196 2198 2199 2200
3281 17 2196 2198 2214 2213
3282 16 2196 2164 2195 2214
3283 17 2195 2214 2213 2201
3284 17 2195 2214 2198 2196
3285 17 2195 2214 2198 2199
3286 16 2195 2164 2196 2197
3287 16 2195 2164 2196 2198
3288 8 2194 2195 2214 2213
3289 8 2194 2195 2214 2198
3290 16 2194 2195 2164 2196
3291 17 2176 2175 2177 2178
3292 17 2176 2175 2177 2179
3293 17 2174 2173 2172 2179
3294 17 2174 2175 2177 2178
3295 17 2174 2175 2177 2179
3296 17 2173 2172 2179 2177
3297 17 2173 2174 2175 2176
3298 17 2173 2174 2175 2177
3299 17 2172 2173 2174 2175
3300 17 2172 2179 2177 2175
3301 17 2172 2179 2177 2178
3302 17 2171 2172 2173 2174
3303 17 2171 2172 2179 2177
3304 7 2170 2171 2172 2173
3305 7 2170 2171 2172 2179
3306 12 2169 2167 2166 2180
3307 6 2169 2170 2171 2172
3308 8 2168 2167 2166 2180
3309 16 2168 2167 2169 2170
3310 13 2167 2169 2170 2171
3311 5 2167 2169 2170 2171
3312 3 2167 2169 2170 2171
3313 16 2166 2167 2169 2170
3314 11 2165 2163 2164 2195
3315 11 2165 2163 2164 2196
3316 8 2165 2166 2167 2168
3317 12 2165 2166 2167 2169
3318 17 2164 2163 2165 2166
3319 12 2164 2195 2214 2213
3320 12 2164 2195 2214 2198
3321 12 2164 2196 2198 2199
3322 12 2164 2196 2198 2214
3323 17 2163 2162 2161 2180
3324 16 2163 2164 2195 2194
3325 16 2163 2164 2195 2214
3326 16 2163 2164 2196 2197
3327 16 2163 2164 2196 2198
3328 17 2163 2165 2166 2167
3329 17 2163 2165 2166 2180
3330 17 2162 2161 2180 2166
3331 11 2162 2163 2164 2195
3332 11 2162 2163 2164 2196
3333 17 2162 2163 2165 2166
3334 17 2161 2162 2163 2164
3335 17 2161 2162 2163 2165
3336 17 2161 2180 2166 2165
3337 17 2161 2180 2166 2167
3338 17 2160 2161 2162 2163
3339 17 2160 2161 2180 2166
3340 12 2151 2150 2148 2160
3341 16 2150 2148 2160 2161
3342 12 2150 2145 2146 2160
3343 8 2149 2148 2150 2151
3344 16 2149 2148 2160 2161
3345 11 2148 2160 2161 2162
3346 11 2148 2160 2161 2180
3347 8 2147 2146 2145 2150
3348 16 2147 2146 2160 2161
3349 16 2147 2146 2160 2148
3350 17 2146 2145 2150 2148
3351 17 2146 2145 2150 2151
3352 11 2146 2160 2161 2162
3353 11 2146 2160 2161 2180
3354 16 2146 2160 2148 2149
3355 16 2146 2160 2148 2150
3356 16 2145 2146 2160 2161
3357 16 2145 2146 2160 2148
3358 8 2145 2150 2148 2149
3359 12 2145 2150 2148 2160
3360 17 2144 2143 2142 2151
3361 8 2144 2145 2146 2147
3362 12 2144 2145 2146 2160
3363 17 2144 2145 2150 2148
3364 17 2144 2145 2150 2151
3365 17 2143 2142 2151 2150
3366 17 2143 2144 2145 2146
3367 17 2143 2144 2145 2150
3368 10 2142 2141 2140 2152
3369 17 2142 2143 2144 2145
3370 17 2142 2151 2150 2148
3371 17 2142 2151 2150 2145
3372 17 2141 2140 2152 2153
3373 17 2141 2142 2143 2144
3374 17 2141 2142 2151 2150
3375 10 2140 2141 2142 2143
3376 10 2140 2141 2142 2151
3377 17 2139 2138 2137 2153
3378 10 2139 2140 2141 2142
3379 17 2139 2140 2152 2153
3380 17 2138 2137 2153 2152
3381 17 2138 2139 2140 2141
3382 17 2138 2139 2140 2152
3383 17 2137 2138 2139 2140
3384 17 2137 2153 2152 2140
3385 8 2136 2135 2137 2138
3386 8 2136 2135 2137 2153
3387 17 2135 2137 2138 2139
3388 17 2135 2137 2153 2152
3389 16 2135 2120 2134 2153
3390 17 2134 2153 2152 2140
3391 17 2134 2153 2137 2135
3392 17 2134 2153 2137 2138
3393 16 2134 2120 2135 2136
3394 16 2134 2120 2135 2137
3395 8 2133 2134 2153 2152
3396 8 2133 2134 2153 2137
3397 16 2133 2134 2120 2135
3398 11 2121 2119 2120 2134
3399 11 2121 2119 2120 2135
3400 17 2120 2119 2121 2122
3401 12 2120 2134 2153 2152
3402 12 2120 2134 2153 2137
3403 12 2120 2135 2137 2138
3404 12 2120 2135 2137 2153
3405 16 2119 2120 2134 2133
3406 16 2119 2120 2134 2153
3407 16 2119 2120 2135 2136
3408 16 2119 2120 2135 2137
3409 17 2118 2117 2116 2122
3410 11 2118 2119 2120 2134
3411 11 2118 2119 2120 2135
3412 17 2118 2119 2121 2122
3413 17 2117 2116 2122 2121
3414 17 2117 2118 2119 2120
3415 17 2117 2118 2119 2121
3416 10 2116 2115 2114 2123
3417 17 2116 2117 2118 2119
3418 17 2116 2122 2121 2119
3419 17 2115 2114 2123 2124
3420 17 2115 2116 2117 2118
3421 17 2115 2116 2122 2121
3422 10 2114 2115 2116 2117
3423 10 2114 2115 2116 2122
3424 17 2113 2112 2111 2124
3425 10 2113 2114 2115 2116
3426 17 2113 2114 2123 2124
3427 17 2112 2111 2124 2123
3428 17 2112 2113 2114 2115
3429 17 2112 2113 2114 2123
3430 17 2111 2112 2113 2114
3431 17 2111 2124 2123 2114
3432 17 2110 2111 2112 2113
3433 17 2110 2111 2124 2123
3434 12 2101 2100 2098 2110
3435 16 2100 2098 2110 2111
3436 12 2100 2095 2096 2110
3437 8 2099 2098 2100 2101
3438 16 2099 2098 2110 2111
3439 11 2098 2110 2111 2112
3440 11 2098 2110 2111 2124
3441 8 2097 2096 2095 2100
3442 16 2097 2096 2110 2111
3443 16 2097 2096 2110 2098
3444 17 2096 2095 2100 2098
3445 17 2096 2095 2100 2101
3446 11 2096 2110 2111 2112
3447 11 2096 2110 2111 2124
3448 16 2096 2110 2098 2099
3449 16 2096 2110 2098 2100
3450 16 2095 2096 2110 2111
3451 16 2095 2096 2110 2098
3452 8 2095 2100 2098 2099
3453 12 2095 2100 2098 2110
3454 17 2094 2093 2092 2101
3455 8 2094 2095 2096 2097
3456 12 2094 2095 2096 2110
3457 17 2094 2095 2100 2098
3458 17 2094 2095 2100 2101
3459 17 2093 2092 2101 2100
3460 17 2093 2094 2095 2096
3461 17 2093 2094 2095 2100
3462 10 2092 2091 2090 2102
3463 17 2092 2093 2094 2095
3464 17 2092 2101 2100 2098
3465 17 2092 2101 2100 2095
3466 17 2091 2090 2102 2103
3467 17 2091 2092 2093 2094
3468 17 2091 2092 2101 2100
3469 10 2090 2091 2092 2093
3470 10 2090 2091 2092 2101
3471 17 2089 2088 2087 2103
3472 10 2089 2090 2091 2092
3473 17 2089 2090 2102 2103
3474 17 2088 2087 2103 2102
3475 17 2088 2089 2090 2091
3476 17 2088 2089 2090 2102
3477 17 2087 2088 2089 2090
3478 17 2087 2103 2102 2090
3479 8 2086 2085 2087 2088
3480 8 2086 2085 2087 2103
3481 17 2085 2087 2088 2089
3482 17 2085 2087 2103 2102
3483 16 2085 2070 2084 2103
3484 17 2084 2103 2102 2090
3485 17 2084 2103 2087 2085
3486 17 2084 2103 2087 2088
3487 16 2084 2070 2085 2086
3488 16 2084 2070 2085 2087
3489 8 2083 2084 2103 2102
3490 8 2083 2084 2103 2087
3491 16 2083 2084 2070 2085
3492 11 2071 2069 2070 2084
3493 11 2071 2069 2070 2085
3494 17 2070 2069 2071 2072
3495 12 2070 2084 2103 2102
3496 12 2070 2084 2103 2087
3497 12 2070 2085 2087 2088
3498 12 2070 2085 2087 2103
3499 16 2069 2070 2084 2083
3500 16 2069 2070 2084 2103
3501 16 2069 2070 2085 2086
3502 16 2069 2070 2085 2087
3503 17 2068 2067 2066 2072
3504 11 2068 2069 2070 2084
3505 11 2068 2069 2070 2085
3506 17 2068 2069 2071 2072
3507 17 2067 2066 2072 2071
3508 17 2067 2068 2069 2070
3509 17 2067 2068 2069 2071
3510 10 2066 2065 2064 2073
3511 17 2066 2067 2068 2069
3512 17 2066 2072 2071 2069
3513 17 2065 2064 2073 2074
3514 17 2065 2066 2067 2068
3515 17 2065 2066 2072 2071
3516 10 2064 2065 2066 2067
3517 10 2064 2065 2066 2072
3518 17 2063 2062 2061 2074
3519 10 2063 2064 2065 2066
3520 17 2063 2064 2073 2074
3521 17 2062 2061 2074 2073
3522 17 2062 2063 2064 2065
3523 17 2062 2063 2064 2073
3524 17 2061 2062 2063 2064
3525 17 2061 2074 2073 2064
3526 17 2060 2061 2062 2063
3527 17 2060 2061 2074 2073
3528 12 2051 2050 2048 2060
3529 16 2050 2048 2060 2061
3530 12 2050 2045 2046 2060
3531 8 2049 2048 2050 2051
3532 16 2049 2048 2060 2061
3533 11 2048 2060 2061 2062
3534 11 2048 2060 2061 2074
3535 8 2047 2046 2045 2050
3536 16 2047 2046 2060 2061
3537 16 2047 2046 2060 2048
3538 17 2046 2045 2050 2048
3539 17 2046 2045 2050 2051
3540 11 2046 2060 2061 2062
3541 11 2046 2060 2061 2074
3542 16 2046 2060 2048 2049
3543 16 2046 2060 2048 2050
3544 16 2045 2046 2060 2061
3545 16 2045 2046 2060 2048
3546 8 2045 2050 2048 2049
3547 12 2045 2050 2048 2060
3548 17 2044 2043 2042 2051
3549 8 2044 2045 2046 2047
3550 12 2044 2045 2046 2060
3551 17 2044 2045 2050 2048
3552 17 2044 2045 2050 2051
3553 17 2043 2042 2051 2050
3554 17 2043 2044 2045 2046
3555 17 2043 2044 2045 2050
3556 10 2042 2041 2040 2052
3557 17 2042 2043 2044 2045
3558 17 2042 2051 2050 2048
3559 17 2042 2051 2050 2045
3560 17 2041 2040 2052 2053
3561 17 2041 2042 2043 2044
3562 17 2041 2042 2051 2050
3563 10 2040 2041 2042 2043
3564 10 2040 2041 2042 2051
3565 17 2039 2038 2037 2053
3566 10 2039 2040 2041 2042
3567 17 2039 2040 2052 2053
3568 17 2038 2037 2053 2052
3569 17 2038 2039 2040 2041
3570 17 2038 2039 2040 2052
3571 17 2037 2038 2039 2040
3572 17 2037 2053 2052 2040
3573 8 2036 2035 2037 2038
3574 8 2036 2035 2037 2053
3575 17 2035 2037 2038 2039
3576 17 2035 2037 2053 2052
3577 16 2035 2020 2034 2053
3578 17 2034 2053 2052 2040
3579 17 2034 2053 2037 2035
3580 17 2034 2053 2037 2038
3581 16 2034 2020 2035 2036
3582 16 2034 2020 2035 2037
3583 8 2033 2034 2053 2052
3584 8 2033 2034 2053 2037
3585 16 2033 2034 2020 2035
3586 11 2021 2019 2020 2034
3587 11 2021 2019 2020 2035
3588 17 2020 2019 2021 2022
3589 12 2020 2034 2053 2052
3590 12 2020 2034 2053 2037
3591 12 2020 2035 2037 2038
3592 12 2020 2035 2037 2053
3593 16 2019 2020 2034 2033
3594 16 2019 2020 2034 2053
3595 16 2019 2020 2035 2036
3596 16 2019 2020 2035 2037
3597 17 2018 2017 2016 2022
3598 11 2018 2019 2020 2034
3599 11 2018 2019 2020 2035
3600 17 2018 2019 2021 2022
3601 17 2017 2016 2022 2021
3602 17 2017 2018 2019 2020
3603 17 2017 2018 2019 2021
3604 10 2016 2015 2014 2023
3605 17 2016 2017 2018 2019
3606 17 2016 2022 2021 2019
3607 17 2015 2014 2023 2024
3608 17 2015 2016 2017 2018
3609 17 2015 2016 2022 2021
3610 10 2014 2015 2016 2017
3611 10 2014 2015 2016 2022
3612 17 2013 2012 2011 2024
3613 10 2013 2014 2015 2016
3614 17 2013 2014 2023 2024
3615 17 2012 2011 2024 2023
3616 17 2012 2013 2014 2015
3617 17 2012 2013 2014 2023
3618 17 2011 2012 2013 2014
3619 17 2011 2024 2023 2014
3620 17 2010 2011 2012 2013
3621 17 2010 2011 2024 2023
3622 12 2001 2000 1998 2010
3623 16 2000 1998 2010 2011
3624 12 2000 1995 1996 2010
3625 8 1999 1998 2000 2001
3626 16 1999 1998 2010 2011
3627 11 1998 2010 2011 2012
3628 11 1998 2010 2011 2024
3629 8 1997 1996 1995 2000
3630 16 1997 1996 2010 2011
3631 16 1997 1996 2010 1998
3632 17 1996 1995 2000 1998
3633 17 1996 1995 2000 2001
3634 11 1996 2010 2011 2012
3635 11 1996 2010 2011 2024
3636 16 1996 2010 1998 1999
3637 16 1996 2010 1998 2000
3638 16 1995 1996 2010 2011
3639 16 1995 1996 2010 1998
3640 8 1995 2000 1998 1999
3641 12 1995 2000 1998 2010
3642 17 1994 1993 1992 2001
3643 8 1994 1995 1996 1997
3644 12 1994 1995 1996 2010
3645 17 1994 1995 2000 1998
3646 17 1994 1995 2000 2001
3647 17 1993 1992 2001 2000
3648 17 1993 1994 1995 1996
3649 17 1993 1994 1995 2000
3650 10 1992 1991 1990 2002
3651 17 1992 1993 1994 1995
3652 17 1992 2001 2000 1998
3653 17 1992 2001 2000 1995
3654 17 1991 1990 2002 2003
3655 17 1991 1992 1993 1994
3656 17 1991 1992 2001 2000
3657 10 1990 1991 1992 1993
3658 10 1990 1991 1992 2001
3659 17 1989 1988 1987 2003
3660 10 1989 1990 1991 1992
3661 17 1989 1990 2002 2003
3662 17 1988 1987 2003 2002
3663 17 1988 1989 1990 1991
3664 17 1988 1989 1990 2002
3665 17 1987 1988 1989 1990
3666 17 1987 2003 2002 1990
3667 8 1986 1985 1987 1988
3668 8 1986 1985 1987 2003
3669 17 1985 1987 1988 1989
3670 17 1985 1987 2003 2002
3671 16 1985 1970 1984 2003
3672 17 1984 2003 2002 1990
3673 17 1984 2003 1987 1985
3674 17 1984 2003 1987 1988
3675 16 1984 1970 1985 1986
3676 16 1984 1970 1985 1987
3677 8 1983 1984 2003 2002
3678 8 1983 1984 2003 1987
3679 16 1983 1984 1970 1985
3680 11 1971 1969 1970 1984
3681 11 1971 1969 1970 1985
3682 17 1970 1969 1971 1972
3683 12 1970 1984 2003 2002
3684 12 1970 1984 2003 1987
3685 12 1970 1985 1987 1988
3686 12 1970 1985 1987 2003
3687 16 1969 1970 1984 1983
3688 16 1969 1970 1984 2003
3689 16 1969 1970 1985 1986
3690 16 1969 1970 1985 1987
3691 17 1968 1967 1966 1972
3692 11 1968 1969 1970 1984
3693 11 1968 1969 1970 1985
3694 17 1968 1969 1971 1972
3695 17 1967 1966 1972 1971
3696 17 1967 1968 1969 1970
3697 17 1967 1968 1969 1971
3698 10 1966 1965 1964 1973
3699 17 1966 1967 1968 1969
3700 17 1966 1972 1971 1969
3701 17 1965 1964 1973 1974
3702 17 1965 1966 1967 1968
3703 17 1965 1966 1972 1971
3704 10 1964 1965 1966 1967
3705 10 1964 1965 1966 1972
3706 17 1963 1962 1961 1974
3707 10 1963 1964 1965 1966
3708 17 1963 1964 1973 1974
3709 17 1962 1961 1974 1973
3710 17 1962 1963 1964 1965
3711 17 1962 1963 1964 1973
3712 17 1961 1962 1963 1964
3713 17 1961 1974 1973 1964
3714 17 1960 1961 1962 1963
3715 17 1960 1961 1974 1973
3716 12 1951 1950 1948 1960
3717 16 1950 1948 1960 1961
3718 12 1950 1945 1946 1960
3719 8 1949 1948 1950 1951
3720 16 1949 1948 1960 1961
3721 11 1948 1960 1961 1962
3722 11 1948 1960 1961 1974
3723 8 1947 1946 1945 1950
3724 16 1947 1946 1960 1961
3725 16 1947 1946 1960 1948
3726 17 1946 1945 1950 1948
3727 17 1946 1945 1950 1951
3728 11 1946 1960 1961 1962
3729 11 1946 1960 1961 1974
3730 16 1946 1960 1948 1949
3731 16 1946 1960 1948 1950
3732 16 1945 1946 1960 1961
3733 16 1945 1946 1960 1948
3734 8 1945 1950 1948 1949
3735 12 1945 1950 1948 1960
3736 17 1944 1943 1942 1951
3737 8 1944 1945 1946 1947
3738 12 1944 1945 1946 1960
3739 17 1944 1945 1950 1948
3740 17 1944 1945 1950 1951
3741 17 1943 1942 1951 1950
3742 17 1943 1944 1945 1946
3743 17 1943 1944 1945 1950
3744 10 1942 1941 1940 1952
3745 17 1942 1943 1944 1945
3746 17 1942 1951 1950 1948
3747 17 1942 1951 1950 1945
3748 17 1941 1940 1952 1953
3749 17 1941 1942 1943 1944
3750 17 1941 1942 1951 1950
3751 10 1940 1941 1942 1943
3752 10 1940 1941 1942 1951
3753 17 1939 1938 1937 1953
3754 10 1939 1940 1941 1942
3755 17 1939 1940 1952 1953
3756 17 1938 1937 1953 1952
3757 17 1938 1939 1940 1941
3758 17 1938 1939 1940 1952
3759 17 1937 1938 1939 1940
3760 17 1937 1953 1952 1940
3761 8 1936 1935 1937 1938
3762 8 1936 1935 1937 1953
3763 17 1935 1937 1938 1939
3764 17 1935 1937 1953 1952
3765 16 1935 1920 1934 1953
3766 17 1934 1953 1952 1940
3767 17 1934 1953 1937 1935
3768 17 1934 1953 1937 1938
3769 16 1934 1920 1935 1936
3770 16 1934 1920 1935 1937
3771 8 1933 1934 1953 1952
3772 8 1933 1934 1953 1937
3773 16 1933 1934 1920 1935
3774 11 1921 1919 1920 1934
3775 11 1921 1919 1920 1935
3776 17 1920 1919 1921 1922
3777 12 1920 1934 1953 1952
3778 12 1920 1934 1953 1937
3779 12 1920 1935 1937 1938
3780 12 1920 1935 1937 1953
3781 16 1919 1920 1934 1933
3782 16 1919 1920 1934 1953
3783 16 1919 1920 1935 1936
3784 16 1919 1920 1935 1937
3785 17 1918 1917 1916 1922
3786 11 1918 1919 1920 1934
3787 11 1918 1919 1920 1935
3788 17 1918 1919 1921 1922
3789 17 1917 1916 1922 1921
3790 17 1917 1918 1919 1920
3791 17 1917 1918 1919 1921
3792 10 1916 1915 1914 1923
3793 17 1916 1917 1918 1919
3794 17 1916 1922 1921 1919
3795 17 1915 1914 1923 1924
3796 17 1915 1916 1917 1918
3797 17 1915 1916 1922 1921
3798 10 1914 1915 1916 1917
3799 10 1914 1915 1916 1922
3800 17 1913 1912 1911 1924
3801 10 1913 1914 1915 1916
3802 17 1913 1914 1923 1924
3803 17 1912 1911 1924 1923
3804 17 1912 1913 1914 1915
3805 17 1912 1913 1914 1923
3806 17 1911 1912 1913 1914
3807 17 1911 1924 1923 1914
3808 17 1910 1911 1912 1913
3809 17 1910 1911 1924 1923
3810 12 1901 1900 1898 1910
3811 16 1900 1898 1910 1911
3812 12 1900 1895 1896 1910
3813 8 1899 1898 1900 1901
3814 16 1899 1898 1910 1911
3815 11 1898 1910 1911 1912
3816 11 1898 1910 1911 1924
3817 8 1897 1896 1895 1900
3818 16 1897 1896 1910 1911
3819 16 1897 1896 1910 1898
3820 17 1896 1895 1900 1898
3821 17 1896 1895 1900 1901
3822 11 1896 1910 1911 1912
3823 11 1896 1910 1911 1924
3824 16 1896 1910 1898 1899
3825 16 1896 1910 1898 1900
3826 16 1895 1896 1910 1911
3827 16 1895 1896 1910 1898
3828 8 1895 1900 1898 1899
3829 12 1895 1900 1898 1910
3830 17 1894 1893 1892 1901
3831 8 1894 1895 1896 1897
3832 12 1894 1895 1896 1910
3833 17 1894 1895 1900 1898
3834 17 1894 1895 1900 1901
3835 17 1893 1892 1901 1900
3836 17 1893 1894 1895 1896
3837 17 1893 1894 1895 1900
3838 10 1892 1891 1890 1902
3839 17 1892 1893 1894 1895
3840 17 1892 1901 1900 1898
3841 17 1892 1901 1900 1895
3842 17 1891 1890 1902 1903
3843 17 1891 1892 1893 1894
3844 17 1891 1892 1901 1900
3845 10 1890 1891 1892 1893
3846 10 1890 1891 1892 1901
3847 17 1889 1888 1887 1903
3848 10 1889 1890 1891 1892
3849 17 1889 1890 1902 1903
3850 17 1888 1887 1903 1902
3851 17 1888 1889 1890 1891
3852 17 1888 1889 1890 1902
3853 17 1887 1888 1889 1890
3854 17 1887 1903 1902 1890
3855 8 1886 1885 1887 1888
3856 8 1886 1885 1887 1903
3857 17 1885 1887 1888 1889
3858 17 1885 1887 1903 1902
3859 16 1885 1853 1884 1903
3860 17 1884 1903 1902 1890
3861 17 1884 1903 1887 1885
3862 17 1884 1903 1887 1888
3863 16 1884 1853 1885 1886
3864 16 1884 1853 1885 1887
3865 8 1883 1884 1903 1902
3866 8 1883 1884 1903 1887
3867 16 1883 1884 1853 1885
3868 17 1865 1864 1866 1867
3869 17 1865 1864 1866 1868
3870 17 1863 1862 1861 1868
3871 17 1863 1864 1866 1867
3872 17 1863 1864 1866 1868
3873 17 1862 1861 1868 1866
3874 17 1862 1863 1864 1865
3875 17 1862 1863 1864 1866
3876 17 1861 1862 1863 1864
3877 17 1861 1868 1866 1864
3878 17 1861 1868 1866 1867
3879 17 1860 1861 1862 1863
3880 17 1860 1861 1868 1866
3881 7 1859 1860 1861 1862
3882 7 1859 1860 1861 1868
3883 12 1858 1856 1855 1869
3884 6 1858 1859 1860 1861
3885 8 1857 1856 1855 1869
3886 16 1857 1856 1858 1859
3887 13 1856 1858 1859 1860
3888 5 1856 1858 1859 1860
3889 3 1856 1858 1859 1860
3890 16 1855 1856 1858 1859
3891 11 1854 1852 1853 1884
3892 11 1854 1852 1853 1885
3893 8 1854 1855 1856 1857
3894 12 1854 1855 1856 1858
3895 17 1853 1852 1854 1855
3896 12 1853 1884 1903 1902
3897 12 1853 1884 1903 1887
3898 12 1853 1885 1887 1888
3899 12 1853 1885 1887 1903
3900 17 1852 1851 1850 1869
3901 16 1852 1853 1884 1883
3902 16 1852 1853 1884 1903
3903 16 1852 1853 1885 1886
3904 16 1852 1853 1885 1887
3905 17 1852 1854 1855 1856
3906 17 1852 1854 1855 1869
3907 17 1851 1850 1869 1855
3908 11 1851 1852 1853 1884
3909 11 1851 1852 1853 1885
3910 17 1851 1852 1854 1855
3911 17 1850 1851 1852 1853
3912 17 1850 1851 1852 1854
3913 17 1850 1869 1855 1854
3914 17 1850 1869 1855 1856
3915 17 1849 1850 1851 1852
3916 17 1849 1850 1869 1855
3917 12 1840 1839 1837 1849
3918 16 1839 1837 1849 1850
3919 12 1839 1834 1835 1849
3920 8 1838 1837 1839 1840
3921 16 1838 1837 1849 1850
3922 11 1837 1849 1850 1851
3923 11 1837 1849 1850 1869
3924 8 1836 1835 1834 1839
3925 16 1836 1835 1849 1850
3926 16 1836 1835 1849 1837
3927 17 1835 1834 1839 1837
3928 17 1835 1834 1839 1840
3929 11 1835 1849 1850 1851
3930 11 1835 1849 1850 1869
3931 16 1835 1849 1837 1838
3932 16 1835 1849 1837 1839
3933 16 1834 1835 1849 1850
3934 16 1834 1835 1849 1837
3935 8 1834 1839 1837 1838
3936 12 1834 1839 1837 1849
3937 17 1833 1832 1831 1840
3938 8 1833 1834 1835 1836
3939 12 1833 1834 1835 1849
3940 17 1833 1834 1839 1837
3941 17 1833 1834 1839 1840
3942 17 1832 1831 1840 1839
3943 17 1832 1833 1834 1835
3944 17 1832 1833 1834 1839
3945 10 1831 1830 1829 1841
3946 17 1831 1832 1833 1834
3947 17 1831 1840 1839 1837
3948 17 1831 1840 1839 1834
3949 17 1830 1829 1841 1842
3950 17 1830 1831 1832 1833
3951 17 1830 1831 1840 1839
3952 10 1829 1830 1831 1832
3953 10 1829 1830 1831 1840
3954 17 1828 1827 1826 1842
3955 10 1828 1829 1830 1831
3956 17 1828 1829 1841 1842
3957 17 1827 1826 1842 1841
3958 17 1827 1828 1829 1830
3959 17 1827 1828 1829 1841
3960 17 1826 1827 1828 1829
3961 17 1826 1842 1841 1829
3962 8 1825 1824 1826 1827
3963 8 1825 1824 1826 1842
3964 17 1824 1826 1827 1828
3965 17 1824 1826 1842 1841
3966 16 1824 1807 1823 1842
3967 17 1823 1842 1841 1829
3968 17 1823 1842 1826 1824
3969 17 1823 1842 1826 1827
3970 16 1823 1807 1824 1825
3971 16 1823 1807 1824 1826
3972 8 1822 1823 1842 1841
3973 8 1822 1823 1842 1826
3974 16 1822 1823 1807 1824
3975 11 1808 1806 1807 1823
3976 11 1808 1806 1807 1824
3977 17 1807 1806 1808 1809
3978 12 1807 1823 1842 1841
3979 12 1807 1823 1842 1826
3980 12 1807 1824 1826 1827
3981 12 1807 1824 1826 1842
3982 16 1806 1807 1823 1822
3983 16 1806 1807 1823 1842
3984 16 1806 1807 1824 1825
3985 16 1806 1807 1824 1826
3986 17 1805 1804 1803 1809
3987 11 1805 1806 1807 1823
3988 11 1805 1806 1807 1824
3989 17 1805 1806 1808 1809
3990 17 1804 1803 1809 1808
3991 17 1804 1805 1806 1807
3992 17 1804 1805 1806 1808
3993 10 1803 1802 1801 1810
3994 17 1803 1804 1805 1806
3995 17 1803 1809 1808 1806
3996 17 1802 1801 1810 1811
3997 17 1802 1803 1804 1805
3998 17 1802 1803 1809 1808
3999 10 1801 1802 1803 1804
4000 10 1801 1802 1803 1809
4001 17 1800 1799 1798 1811
4002 10 1800 1801 1802 1803
4003 17 1800 1801 1810 1811
4004 17 1799 1798 1811 1810
4005 17 1799 1800 1801 1802
4006 17 1799 1800 1801 1810
4007 17 1798 1799 1800 1801
4008 17 1798 1811 1810 1801
4009 17 1797 1798 1799 1800
4010 17 1797 1798 1811 1810
4011 17 2680 2679 2681 2682
4012 17 2678 2677 2676 2682
4013 17 2678 2679 2681 2682
4014 17 2677 2676 2682 2681
4015 17 2677 2678 2679 2680
4016 17 2677 2678 2679 2681
4017 10 2676 2675 2674 2683
4018 17 2676 2677 2678 2679
4019 17 2676 2682 2681 2679
4020 17 2675 2674 2683 2684
4021 17 2675 2676 2677 2678
4022 17 2675 2676 2682 2681
4023 10 2674 2675 2676 2677
4024 10 2674 2675 2676 2682
4025 17 2673 2672 2671 2684
4026 10 2673 2674 2675 2676
4027 17 2673 2674 2683 2684
4028 17 2672 2671 2684 2683
4029 17 2672 2673 2674 2675
4030 17 2672 2673 2674 2683
4031 17 2671 2672 2673 2674
4032 17 2671 2684 2683 2674
4033 17 2670 2671 2672 2673
4034 17 2670 2671 2684 2683
4035 12 2661 2660 2658 2670
4036 16 2660 2658 2670 2671
4037 12 2660 2655 2656 2670
4038 8 2659 2658 2660 2661
4039 16 2659 2658 2670 2671
4040 11 2658 2670 2671 2672
4041 11 2658 2670 2671 2684
4042 8 2657 2656 2655 2660
4043 16 2657 2656 2670 2671
4044 16 2657 2656 2670 2658
4045 17 2656 2655 2660 2658
4046 17 2656 2655 2660 2661
4047 11 2656 2670 2671 2672
4048 11 2656 2670 2671 2684
4049 16 2656 2670 2658 2659
4050 16 2656 2670 2658 2660
4051 16 2655 2656 2670 2671
4052 16 2655 2656 2670 2658
4053 8 2655 2660 2658 2659
4054 12 2655 2660 2658 2670
4055 17 2654 2653 2652 2661
4056 8 2654 2655 2656 2657
4057 12 2654 2655 2656 2670
4058 17 2654 2655 2660 2658
4059 17 2654 2655 2660 2661
4060 17 2653 2652 2661 2660
4061 17 2653 2654 2655 2656
4062 17 2653 2654 2655 2660
4063 10 2652 2651 2650 2662
4064 17 2652 2653 2654 2655
4065 17 2652 2661 2660 2658
4066 17 2652 2661 2660 2655
4067 17 2651 2650 2662 2663
4068 17 2651 2652 2653 2654
4069 17 2651 2652 2661 2660
4070 10 2650 2651 2652 2653
4071 10 2650 2651 2652 2661
4072 17 2649 2648 2647 2663
4073 10 2649 2650 2651 2652
4074 17 2649 2650 2662 2663
4075 17 2648 2647 2663 2662
4076 17 2648 2649 2650 2651
4077 17 2648 2649 2650 2662
4078 17 2647 2648 2649 2650
4079 17 2647 2663 2662 2650
4080 8 2646 2645 2647 2648
4081 8 2646 2645 2647 2663
4082 17 2645 2647 2648 2649
4083 17 2645 2647 2663 2662
4084 16 2645 2613 2644 2663
4085 17 2644 2663 2662 2650
4086 17 2644 2663 2647 2645
4087 17 2644 2663 2647 2648
4088 16 2644 2613 2645 2646
4089 16 2644 2613 2645 2647
4090 8 2643 2644 2663 2662
4091 8 2643 2644 2663 2647
4092 16 2643 2644 2613 2645
4093 17 2625 2624 2626 2627
4094 17 2625 2624 2626 2628
4095 17 2623 2622 2621 2628
4096 17 2623 2624 2626 2627
4097 17 2623 2624 2626 2628
4098 17 2622 2621 2628 2626
4099 17 2622 2623 2624 2625
4100 17 2622 2623 2624 2626
4101 17 2621 2622 2623 2624
4102 17 2621 2628 2626 2624
4103 17 2621 2628 2626 2627
4104 17 2620 2621 2622 2623
4105 17 2620 2621 2628 2626
4106 7 2619 2620 2621 2622
4107 7 2619 2620 2621 2628
4108 12 2618 2616 2615 2629
4109 6 2618 2619 2620 2621
4110 8 2617 2616 2615 2629
4111 16 2617 2616 2618 2619
4112 13 2616 2618 2619 2620
4113 5 2616 2618 2619 2620
4114 3 2616 2618 2619 2620
4115 16 2615 2616 2618 2619
4116 11 2614 2612 2613 2644
4117 11 2614 2612 2613 2645
4118 8 2614 2615 2616 2617
4119 12 2614 2615 2616 2618
4120 17 2613 2612 2614 2615
4121 12 2613 2644 2663 2662
4122 12 2613 2644 2663 2647
4123 12 2613 2645 2647 2648
4124 12 2613 2645 2647 2663
4125 17 2612 2611 2610 2629
4126 16 2612 2613 2644 2643
4127 16 2612 2613 2644 2663
4128 16 2612 2613 2645 2646
4129 16 2612 2613 2645 2647
4130 17 2612 2614 2615 2616
4131 17 2612 2614 2615 2629
4132 17 2611 2610 2629 2615
4133 11 2611 2612 2613 2644
4134 11 2611 2612 2613 2645
4135 17 2611 2612 2614 2615
4136 17 2610 2611 2612 2613
4137 17 2610 2611 2612 2614
4138 17 2610 2629 2615 2614
4139 17 2610 2629 2615 2616
4140 17 2609 2610 2611 2612
4141 17 2609 2610 2629 2615
4142 12 2600 2599 2597 2609
4143 16 2599 2597 2609 2610
4144 12 2599 2594 2595 2609
4145 8 2598 2597 2599 2600
4146 16 2598 2597 2609 2610
4147 11 2597 2609 2610 2611
4148 11 2597 2609 2610 2629
4149 8 2596 2595 2594 2599
4150 16 2596 2595 2609 2610
4151 16 2596 2595 2609 2597
4152 17 2595 2594 2599 2597
4153 17 2595 2594 2599 2600
4154 11 2595 2609 2610 2611
4155 11 2595 2609 2610 2629
4156 16 2595 2609 2597 2598
4157 16 2595 2609 2597 2599
4158 16 2594 2595 2609 2610
4159 16 2594 2595 2609 2597
4160 8 2594 2599 2597 2598
4161 12 2594 2599 2597 2609
4162 17 2593 2592 2591 2600
4163 8 2593 2594 2595 2596
4164 12 2593 2594 2595 2609
4165 17 2593 2594 2599 2597
4166 17 2593 2594 2599 2600
4167 17 2592 2591 2600 2599
4168 17 2592 2593 2594 2595
4169 17 2592 2593 2594 2599
4170 10 2591 2590 2589 2601
4171 17 2591 2592 2593 2594
4172 17 2591 2600 2599 2597
4173 17 2591 2600 2599 2594
4174 17 2590 2589 2601 2602
4175 17 2590 2591 2592 2593
4176 17 2590 2591 2600 2599
4177 10 2589 2590 2591 2592
4178 10 2589 2590 2591 2600
4179 17 2588 2587 2586 2602
4180 10 2588 2589 2590 2591
4181 17 2588 2589 2601 2602
4182 17 2587 2586 2602 2601
4183 17 2587 2588 2589 2590
4184 17 2587 2588 2589 2601
4185 17 2586 2587 2588 2589
4186 17 2586 2602 2601 2589
4187 8 2585 2584 2586 2587
4188 8 2585 2584 2586 2602
4189 17 2584 2586 2587 2588
4190 17 2584 2586 2602 2601
4191 16 2584 2569 2583 2602
4192 17 2583 2602 2601 2589
4193 17 2583 2602 2586 2584
4194 17 2583 2602 2586 2587
4195 16 2583 2569 2584 2585
4196 16 2583 2569 2584 2586
4197 8 2582 2583 2602 2601
4198 8 2582 2583 2602 2586
4199 16 2582 2583 2569 2584
4200 11 2570 2568 2569 2583
4201 11 2570 2568 2569 2584
4202 17 2569 2568 2570 2571
4203 12 2569 2583 2602 2601
4204 12 2569 2583 2602 2586
4205 12 2569 2584 2586 2587
4206 12 2569 2584 2586 2602
4207 16 2568 2569 2583 2582
4208 16 2568 2569 2583 2602
4209 16 2568 2569 2584 2585
4210 16 2568 2569 2584 2586
4211 17 2567 2566 2565 2571
4212 11 2567 2568 2569 2583
4213 11 2567 2568 2569 2584
4214 17 2567 2568 2570 2571
4215 17 2566 2565 2571 2570
4216 17 2566 2567 2568 2569
4217 17 2566 2567 2568 2570
4218 10 2565 2564 2563 2572
4219 17 2565 2566 2567 2568
4220 17 2565 2571 2570 2568
4221 17 2564 2563 2572 2573
4222 17 2564 2565 2566 2567
4223 17 2564 2565 2571 2570
4224 10 2563 2564 2565 2566
4225 10 2563 2564 2565 2571
4226 17 2562 2561 2560 2573
4227 10 2562 2563 2564 2565
4228 17 2562 2563 2572 2573
4229 17 2561 2560 2573 2572
4230 17 2561 2562 2563 2564
4231 17 2561 2562 2563 2572
4232 17 2560 2561 2562 2563
4233 17 2560 2573 2572 2563
4234 17 2559 2560 2561 2562
4235 17 2559 2560 2573 2572
4236 12 2550 2549 2547 2559
4237 16 2549 2547 2559 2560
4238 12 2549 2544 2545 2559
4239 8 2548 2547 2549 2550
4240 16 2548 2547 2559 2560
4241 11 2547 2559 2560 2561
4242 11 2547 2559 2560 2573
4243 8 2546 2545 2544 2549
4244 16 2546 2545 2559 2560
4245 16 2546 2545 2559 2547
4246 17 2545 2544 2549 2547
4247 17 2545 2544 2549 2550
4248 11 2545 2559 2560 2561
4249 11 2545 2559 2560 2573
4250 16 2545 2559 2547 2548
4251 16 2545 2559 2547 2549
4252 16 2544 2545 2559 2560
4253 16 2544 2545 2559 2547
4254 8 2544 2549 2547 2548
4255 12 2544 2549 2547 2559
4256 17 2543 2542 2541 2550
4257 8 2543 2544 2545 2546
4258 12 2543 2544 2545 2559
4259 17 2543 2544 2549 2547
4260 17 2543 2544 2549 2550
4261 17 2542 2541 2550 2549
4262 17 2542 2543 2544 2545
4263 17 2542 2543 2544 2549
4264 10 2541 2540 2539 2551
4265 17 2541 2542 2543 2544
4266 17 2541 2550 2549 2547
4267 17 2541 2550 2549 2544
4268 17 2540 2539 2551 2552
4269 17 2540 2541 2542 2543
4270 17 2540 2541 2550 2549
4271 10 2539 2540 2541 2542
4272 10 2539 2540 2541 2550
4273 17 2538 2537 2536 2552
4274 10 2538 2539 2540 2541
4275 17 2538 2539 2551 2552
4276 17 2537 2536 2552 2551
4277 17 2537 2538 2539 2540
4278 17 2537 2538 2539 2551
4279 17 2536 2537 2538 2539
4280 17 2536 2552 2551 2539
4281 8 2535 2534 2536 2537
4282 8 2535 2534 2536 2552
4283 17 2534 2536 2537 2538
4284 17 2534 2536 2552 2551
4285 16 2534 2519 2533 2552
4286 17 2533 2552 2551 2539
4287 17 2533 2552 2536 2534
4288 17 2533 2552 2536 2537
4289 16 2533 2519 2534 2535
4290 16 2533 2519 2534 2536
4291 8 2532 2533 2552 2551
4292 8 2532 2533 2552 2536
4293 16 2532 2533 2519 2534
4294 11 2520 2518 2519 2533
4295 11 2520 2518 2519 2534
4296 17 2519 2518 2520 2521
4297 12 2519 2533 2552 2551
4298 12 2519 2533 2552 2536
4299 12 2519 2534 2536 2537
4300 12 2519 2534 2536 2552
4301 16 2518 2519 2533 2532
4302 16 2518 2519 2533 2552
4303 16 2518 2519 2534 2535
4304 16 2518 2519 2534 2536
4305 17 2517 2516 2515 2521
4306 11 2517 2518 2519 2533
4307 11 2517 2518 2519 2534
4308 17 2517 2518 2520 2521
4309 17 2516 2515 2521 2520
4310 17 2516 2517 2518 2519
4311 17 2516 2517 2518 2520
4312 10 2515 2514 2513 2522
4313 17 2515 2516 2517 2518
4314 17 2515 2521 2520 2518
4315 17 2514 2513 2522 2523
4316 17 2514 2515 2516 2517
4317 17 2514 2515 2521 2520
4318 10 2513 2514 2515 2516
4319 10 2513 2514 2515 2521
4320 17 2512 2511 2510 2523
4321 10 2512 2513 2514 2515
4322 17 2512 2513 2522 2523
4323 17 2511 2510 2523 2522
4324 17 2511 2512 2513 2514
4325 17 2511 2512 2513 2522
4326 17 2510 2511 2512 2513
4327 17 2510 2523 2522 2513
4328 17 2509 2510 2511 2512
4329 17 2509 2510 2523 2522
4330 12 2500 2499 2497 2509
4331 16 2499 2497 2509 2510
4332 12 2499 2494 2495 2509
4333 8 2498 2497 2499 2500
4334 16 2498 2497 2509 2510
4335 11 2497 2509 2510 2511
4336 11 2497 2509 2510 2523
4337 8 2496 2495 2494 2499
4338 16 2496 2495 2509 2510
4339 16 2496 2495 2509 2497
4340 17 2495 2494 2499 2497
4341 17 2495 2494 2499 2500
4342 11 2495 2509 2510 2511
4343 11 2495 2509 2510 2523
4344 16 2495 2509 2497 2498
4345 16 2495 2509 2497 2499
4346 16 2494 2495 2509 2510
4347 16 2494 2495 2509 2497
4348 8 2494 2499 2497 2498
4349 12 2494 2499 2497 2509
4350 17 2493 2492 2491 2500
4351 8 2493 2494 2495 2496
4352 12 2493 2494 2495 2509
4353 17 2493 2494 2499 2497
4354 17 2493 2494 2499 2500
4355 17 2492 2491 2500 2499
4356 17 2492 2493 2494 2495
4357 17 2492 2493 2494 2499
4358 10 2491 2490 2489 2501
4359 17 2491 2492 2493 2494
4360 17 2491 2500 2499 2497
4361 17 2491 2500 2499 2494
4362 17 2490 2489 2501 2502
4363 17 2490 2491 2492 2493
4364 17 2490 2491 2500 2499
4365 10 2489 2490 2491 2492
4366 10 2489 2490 2491 2500
4367 17 2488 2487 2486 2502
4368 10 2488 2489 2490 2491
4369 17 2488 2489 2501 2502
4370 17 2487 2486 2502 2501
4371 17 2487 2488 2489 2490
4372 17 2487 2488 2489 2501
4373 17 2486 2487 2488 2489
4374 17 2486 2502 2501 2489
4375 8 2485 2484 2486 2487
4376 8 2485 2484 2486 2502
4377 17 2484 2486 2487 2488
4378 17 2484 2486 2502 2501
4379 16 2484 2469 2483 2502
4380 17 2483 2502 2501 2489
4381 17 2483 2502 2486 2484
4382 17 2483 2502 2486 2487
4383 16 2483 2469 2484 2485
4384 16 2483 2469 2484 2486
4385 8 2482 2483 2502 2501
4386 8 2482 2483 2502 2486
4387 16 2482 2483 2469 2484
4388 11 2470 2468 2469 2483
4389 11 2470 2468 2469 2484
4390 17 2469 2468 2470 2471
4391 12 2469 2483 2502 2501
4392 12 2469 2483 2502 2486
4393 12 2469 2484 2486 2487
4394 12 2469 2484 2486 2502
4395 16 2468 2469 2483 2482
4396 16 2468 2469 2483 2502
4397 16 2468 2469 2484 2485
4398 16 2468 2469 2484 2486
4399 17 2467 2466 2465 2471
4400 11 2467 2468 2469 2483
4401 11 2467 2468 2469 2484
4402 17 2467 2468 2470 2471
4403 17 2466 2465 2471 2470
4404 17 2466 2467 2468 2469
4405 17 2466 2467 2468 2470
4406 10 2465 2464 2463 2472
4407 17 2465 2466 2467 2468
4408 17 2465 2471 2470 2468
4409 17 2464 2463 2472 2473
4410 17 2464 2465 2466 2467
4411 17 2464 2465 2471 2470
4412 10 2463 2464 2465 2466
4413 10 2463 2464 2465 2471
4414 17 2462 2461 2460 2473
4415 10 2462 2463 2464 2465
4416 17 2462 2463 2472 2473
4417 17 2461 2460 2473 2472
4418 17 2461 2462 2463 2464
4419 17 2461 2462 2463 2472
4420 17 2460 2461 2462 2463
4421 17 2460 2473 2472 2463
4422 17 2459 2460 2461 2462
4423 17 2459 2460 2473 2472
4424 12 2450 2449 2447 2459
4425 16 2449 2447 2459 2460
4426 12 2449 2444 2445 2459
4427 8 2448 2447 2449 2450
4428 16 2448 2447 2459 2460
4429 11 2447 2459 2460 2461
4430 11 2447 2459 2460 2473
4431 8 2446 2445 2444 2449
4432 16 2446 2445 2459 2460
4433 16 2446 2445 2459 2447
4434 17 2445 2444 2449 2447
4435 17 2445 2444 2449 2450
4436 11 2445 2459 2460 2461
4437 11 2445 2459 2460 2473
4438 16 2445 2459 2447 2448
4439 16 2445 2459 2447 2449
4440 16 2444 2445 2459 2460
4441 16 2444 2445 2459 2447
4442 8 2444 2449 2447 2448
4443 12 2444 2449 2447 2459
4444 17 2443 2442 2441 2450
4445 8 2443 2444 2445 2446
4446 12 2443 2444 2445 2459
4447 17 2443 2444 2449 2447
4448 17 2443 2444 2449 2450
4449 17 2442 2441 2450 2449
4450 17 2442 2443 2444 2445
4451 17 2442 2443 2444 2449
4452 10 2441 2440 2439 2451
4453 17 2441 2442 2443 2444
4454 17 2441 2450 2449 2447
4455 17 2441 2450 2449 2444
4456 17 2440 2439 2451 2452
4457 17 2440 2441 2442 2443
4458 17 2440 2441 2450 2449
4459 10 2439 2440 2441 2442
4460 10 2439 2440 2441 2450
4461 17 2438 2437 2436 2452
4462 10 2438 2439 2440 2441
4463 17 2438 2439 2451 2452
4464 17 2437 2436 2452 2451
4465 17 2437 2438 2439 2440
4466 17 2437 2438 2439 2451
4467 17 2436 2437 2438 2439
4468 17 2436 2452 2451 2439
4469 8 2435 2434 2436 2437
4470 8 2435 2434 2436 2452
4471 17 2434 2436 2437 2438
4472 17 2434 2436 2452 2451
4473 16 2434 2419 2433 2452
4474 17 2433 2452 2451 2439
4475 17 2433 2452 2436 2434
4476 17 2433 2452 2436 2437
4477 16 2433 2419 2434 2435
4478 16 2433 2419 2434 2436
4479 8 2432 2433 2452 2451
4480 8 2432 2433 2452 2436
4481 16 2432 2433 2419 2434
4482 11 2420 2418 2419 2433
4483 11 2420 2418 2419 2434
4484 17 2419 2418 2420 2421
4485 12 2419 2433 2452 2451
4486 12 2419 2433 2452 2436
4487 12 2419 2434 2436 2437
4488 12 2419 2434 2436 2452
4489 16 2418 2419 2433 2432
4490 16 2418 2419 2433 2452
4491 16 2418 2419 2434 2435
4492 16 2418 2419 2434 2436
4493 17 2417 2416 2415 2421
4494 11 2417 2418 2419 2433
4495 11 2417 2418 2419 2434
4496 17 2417 2418 2420 2421
4497 17 2416 2415 2421 2420
4498 17 2416 2417 2418 2419
4499 17 2416 2417 2418 2420
4500 10 2415 2414 2413 2422
4501 17 2415 2416 2417 2418
4502 17 2415 2421 2420 2418
4503 17 2414 2413 2422 2423
4504 17 2414 2415 2416 2417
4505 17 2414 2415 2421 2420
4506 10 2413 2414 2415 2416
4507 10 2413 2414 2415 2421
4508 17 2412 2411 2410 2423
4509 10 2412 2413 2414 2415
4510 17 2412 2413 2422 2423
4511 17 2411 2410 2423 2422
4512 17 2411 2412 2413 2414
4513 17 2411 2412 2413 2422
4514 17 2410 2411 2412 2413
4515 17 2410 2423 2422 2413
4516 17 2409 2410 2411 2412
4517 17 2409 2410 2423 2422
4518 12 2400 2399 2397 2409
4519 16 2399 2397 2409 2410
4520 12 2399 2394 2395 2409
4521 8 2398 2397 2399 2400
4522 16 2398 2397 2409 2410
4523 11 2397 2409 2410 2411
4524 11 2397 2409 2410 2423
4525 8 2396 2395 2394 2399
4526 16 2396 2395 2409 2410
4527 16 2396 2395 2409 2397
4528 17 2395 2394 2399 2397
4529 17 2395 2394 2399 2400
4530 11 2395 2409 2410 2411
4531 11 2395 2409 2410 2423
4532 16 2395 2409 2397 2398
4533 16 2395 2409 2397 2399
4534 16 2394 2395 2409 2410
4535 16 2394 2395 2409 2397
4536 8 2394 2399 2397 2398
4537 12 2394 2399 2397 2409
4538 17 2393 2392 2391 2400
4539 8 2393 2394 2395 2396
4540 12 2393 2394 2395 2409
4541 17 2393 2394 2399 2397
4542 17 2393 2394 2399 2400
4543 17 2392 2391 2400 2399
4544 17 2392 2393 2394 2395
4545 17 2392 2393 2394 2399
4546 10 2391 2390 2389 2401
4547 17 2391 2392 2393 2394
4548 17 2391 2400 2399 2397
4549 17 2391 2400 2399 2394
4550 17 2390 2389 2401 2402
4551 17 2390 2391 2392 2393
4552 17 2390 2391 2400 2399
4553 10 2389 2390 2391 2392
4554 10 2389 2390 2391 2400
4555 17 2388 2387 2386 2402
4556 10 2388 2389 2390 2391
4557 17 2388 2389 2401 2402
4558 17 2387 2386 2402 2401
4559 17 2387 2388 2389 2390
4560 17 2387 2388 2389 2401
4561 17 2386 2387 2388 2389
4562 17 2386 2402 2401 2389
4563 8 2385 2384 2386 2387
4564 8 2385 2384 2386 2402
4565 17 2384 2386 2387 2388
4566 17 2384 2386 2402 2401
4567 16 2384 2369 2383 2402
4568 17 2383 2402 2401 2389
4569 17 2383 2402 2386 2384
4570 17 2383 2402 2386 2387
4571 16 2383 2369 2384 2385
4572 16 2383 2369 2384 2386
4573 8 2382 2383 2402 2401
4574 8 2382 2383 2402 2386
4575 16 2382 2383 2369 2384
4576 11 2370 2368 2369 2383
4577 11 2370 2368 2369 2384
4578 17 2369 2368 2370 2371
4579 12 2369 2383 2402 2401
4580 12 2369 2383 2402 2386
4581 12 2369 2384 2386 2387
4582 12 2369 2384 2386 2402
4583 16 2368 2369 2383 2382
4584 16 2368 2369 2383 2402
4585 16 2368 2369 2384 2385
4586 16 2368 2369 2384 2386
4587 17 2367 2366 2365 2371
4588 11 2367 2368 2369 2383
4589 11 2367 2368 2369 2384
4590 17 2367 2368 2370 2371
4591 17 2366 2365 2371 2370
4592 17 2366 2367 2368 2369
4593 17 2366 2367 2368 2370
4594 10 2365 2364 2363 2372
4595 17 2365 2366 2367 2368
4596 17 2365 2371 2370 2368
4597 17 2364 2363 2372 2373
4598 17 2364 2365 2366 2367
4599 17 2364 2365 2371 2370
4600 10 2363 2364 2365 2366
4601 10 2363 2364 2365 2371
4602 17 2362 2361 2360 2373
4603 10 2362 2363 2364 2365
4604 17 2362 2363 2372 2373
4605 17 2361 2360 2373 2372
4606 17 2361 2362 2363 2364
4607 17 2361 2362 2363 2372
4608 17 2360 2361 2362 2363
4609 17 2360 2373 2372 2363
4610 17 2359 2360 2361 2362
4611 17 2359 2360 2373 2372
4612 12 2350 2349 2347 2359
4613 16 2349 2347 2359 2360
4614 12 2349 2344 2345 2359
4615 8 2348 2347 2349 2350
4616 16 2348 2347 2359 2360
4617 11 2347 2359 2360 2361
4618 11 2347 2359 2360 2373
4619 8 2346 2345 2344 2349
4620 16 2346 2345 2359 2360
4621 16 2346 2345 2359 2347
4622 17 2345 2344 2349 2347
4623 17 2345 2344 2349 2350
4624 11 2345 2359 2360 2361
4625 11 2345 2359 2360 2373
4626 16 2345 2359 2347 2348
4627 16 2345 2359 2347 2349
4628 16 2344 2345 2359 2360
4629 16 2344 2345 2359 2347
4630 8 2344 2349 2347 2348
4631 12 2344 2349 2347 2359
4632 17 2343 2342 2341 2350
4633 8 2343 2344 2345 2346
4634 12 2343 2344 2345 2359
4635 17 2343 2344 2349 2347
4636 17 2343 2344 2349 2350
4637 17 2342 2341 2350 2349
4638 17 2342 2343 2344 2345
4639 17 2342 2343 2344 2349
4640 10 2341 2340 2339 2351
4641 17 2341 2342 2343 2344
4642 17 2341 2350 2349 2347
4643 17 2341 2350 2349 2344
4644 17 2340 2339 2351 2352
4645 17 2340 2341 2342 2343
4646 17 2340 2341 2350 2349
4647 10 2339 2340 2341 2342
4648 10 2339 2340 2341 2350
4649 17 2338 2337 2336 2352
4650 10 2338 2339 2340 2341
4651 17 2338 2339 2351 2352
4652 17 2337 2336 2352 2351
4653 17 2337 2338 2339 2340
4654 17 2337 2338 2339 2351
4655 17 2336 2337 2338 2339
4656 17 2336 2352 2351 2339
4657 8 2335 2334 2336 2337
4658 8 2335 2334 2336 2352
4659 17 2334 2336 2337 2338
4660 17 2334 2336 2352 2351
4661 16 2334 2302 2333 2352
4662 17 2333 2352 2351 2339
4663 17 2333 2352 2336 2334
4664 17 2333 2352 2336 2337
4665 16 2333 2302 2334 2335
4666 16 2333 2302 2334 2336
4667 8 2332 2333 2352 2351
4668 8 2332 2333 2352 2336
4669 16 2332 2333 2302 2334
4670 17 2314 2313 2315 2316
4671 17 2314 2313 2315 2317
4672 17 2312 2311 2310 2317
4673 17 2312 2313 2315 2316
4674 17 2312 2313 2315 2317
4675 17 2311 2310 2317 2315
4676 17 2311 2312 2313 2314
4677 17 2311 2312 2313 2315
4678 17 2310 2311 2312 2313
4679 17 2310 2317 2315 2313
4680 17 2310 2317 2315 2316
4681 17 2309 2310 2311 2312
4682 17 2309 2310 2317 2315
4683 7 2308 2309 2310 2311
4684 7 2308 2309 2310 2317
4685 12 2307 2305 2304 2318
4686 6 2307 2308 2309 2310
4687 8 2306 2305 2304 2318
4688 16 2306 2305 2307 2308
4689 13 2305 2307 2308 2309
4690 5 2305 2307 2308 2309
4691 3 2305 2307 2308 2309
4692 16 2304 2305 2307 2308
4693 11 2303 2301 2302 2333
4694 11 2303 2301 2302 2334
4695 8 2303 2304 2305 2306
4696 12 2303 2304 2305 2307
4697 17 2302 2301 2303 2304
4698 12 2302 2333 2352 2351
4699 12 2302 2333 2352 2336
4700 12 2302 2334 2336 2337
4701 12 2302 2334 2336 2352
4702 17 2301 2300 2299 2318
4703 16 2301 2302 2333 2332
4704 16 2301 2302 2333 2352
4705 16 2301 2302 2334 2335
4706 16 2301 2302 2334 2336
4707 17 2301 2303 2304 2305
4708 17 2301 2303 2304 2318
4709 17 2300 2299 2318 2304
4710 11 2300 2301 2302 2333
4711 11 2300 2301 2302 2334
4712 17 2300 2301 2303 2304
4713 17 2299 2300 2301 2302
4714 17 2299 2300 2301 2303
4715 17 2299 2318 2304 2303
4716 17 2299 2318 2304 2305
4717 17 2298 2299 2300 2301
4718 17 2298 2299 2318 2304
4719 12 2289 2288 2286 2298
4720 16 2288 2286 2298 2299
4721 12 2288 2283 2284 2298
4722 8 2287 2286 2288 2289
4723 16 2287 2286 2298 2299
4724 11 2286 2298 2299 2300
4725 11 2286 2298 2299 2318
4726 8 2285 2284 2283 2288
4727 16 2285 2284 2298 2299
4728 16 2285 2284 2298 2286
4729 17 2284 2283 2288 2286
4730 17 2284 2283 2288 2289
4731 11 2284 2298 2299 2300
4732 11 2284 2298 2299 2318
4733 16 2284 2298 2286 2287
4734 16 2284 2298 2286 2288
4735 16 2283 2284 2298 2299
4736 16 2283 2284 2298 2286
4737 8 2283 2288 2286 2287
4738 12 2283 2288 2286 2298
4739 17 2282 2281 2280 2289
4740 8 2282 2283 2284 2285
4741 12 2282 2283 2284 2298
4742 17 2282 2283 2288 2286
4743 17 2282 2283 2288 2289
4744 17 2281 2280 2289 2288
4745 17 2281 2282 2283 2284
4746 17 2281 2282 2283 2288
4747 10 2280 2279 2278 2290
4748 17 2280 2281 2282 2283
4749 17 2280 2289 2288 2286
4750 17 2280 2289 2288 2283
4751 17 2279 2278 2290 2291
4752 17 2279 2280 2281 2282
4753 17 2279 2280 2289 2288
4754 10 2278 2279 2280 2281
4755 10 2278 2279 2280 2289
4756 17 2277 2276 2275 2291
4757 10 2277 2278 2279 2280
4758 17 2277 2278 2290 2291
4759 17 2276 2275 2291 2290
4760 17 2276 2277 2278 2279
4761 17 2276 2277 2278 2290
4762 17 2275 2276 2277 2278
4763 17 2275 2291 2290 2278
4764 8 2274 2273 2275 2276
4765 8 2274 2273 2275 2291
4766 17 2273 2275 2276 2277
4767 17 2273 2275 2291 2290
4768 16 2273 2256 2272 2291
4769 17 2272 2291 2290 2278
4770 17 2272 2291 2275 2273
4771 17 2272 2291 2275 2276
4772 16 2272 2256 2273 2274
4773 16 2272 2256 2273 2275
4774 8 2271 2272 2291 2290
4775 8 2271 2272 2291 2275
4776 16 2271 2272 2256 2273
4777 11 2257 2255 2256 2272
4778 11 2257 2255 2256 2273
4779 17 2256 2255 2257 2258
4780 12 2256 2272 2291 2290
4781 12 2256 2272 2291 2275
4782 12 2256 2273 2275 2276
4783 12 2256 2273 2275 2291
4784 16 2255 2256 2272 2271
4785 16 2255 2256 2272 2291
4786 16 2255 2256 2273 2274
4787 16 2255 2256 2273 2275
4788 17 2254 2253 2252 2258
4789 11 2254 2255 2256 2272
4790 11 2254 2255 2256 2273
4791 17 2254 2255 2257 2258
4792 17 2253 2252 2258 2257
4793 17 2253 2254 2255 2256
4794 17 2253 2254 2255 2257
4795 10 2252 2251 2250 2259
4796 17 2252 2253 2254 2255
4797 17 2252 2258 2257 2255
4798 17 2251 2250 2259 2260
4799 17 2251 2252 2253 2254
4800 17 2251 2252 2258 2257
4801 10 2250 2251 2252 2253
4802 10 2250 2251 2252 2258
4803 17 2249 2248 2247 2260
4804 10 2249 2250 2251 2252
4805 17 2249 2250 2259 2260
4806 17 2248 2247 2260 2259
4807 17 2248 2249 2250 2251
4808 17 2248 2249 2250 2259
4809 17 2247 2248 2249 2250
4810 17 2247 2260 2259 2250
4811 17 2246 2247 2248 2249
4812 17 2246 2247 2260 2259
4813 17 448 438 439 449
4814 17 446 436 437 447
4815 17 442 432 433 443
4816 17 440 427 428 441
4817 17 439 426 427 440
4818 17 438 429 428 441
4819 17 437 431 432 442
4820 17 436 434 433 443
4821 14 436 434 435 444
4822 14 436 434 435 445
4823 17 435 434 433 443
4824 17 435 434 436 446
4825 17 434 433 432 442
4826 17 434 436 437 447
4827 14 433 434 435 444
4828 14 433 434 435 445
4829 17 433 434 436 446
4830 17 432 431 437 447
4831 17 431 432 433 443
4832 17 431 437 436 446
4833 17 430 429 428 441
4834 17 430 429 438 448
4835 17 430 431 432 442
4836 17 430 431 437 447
4837 17 429 428 427 440
4838 17 429 438 439 449
4839 17 428 429 438 448
4840 17 427 426 439 449
4841 17 426 427 428 441
4842 17 426 439 438 448
4843 17 425 426 427 440
4844 17 425 426 439 449
4845 17 421 408 409 422
4846 17 419 403 404 420
4847 17 418 402 403 419
4848 17 417 405 404 420
4849 17 416 407 408 421
4850 17 415 410 409 422
4851 17 413 415 416 423
4852 17 411 410 409 422
4853 17 410 409 408 421
4854 17 410 415 416 423
4855 17 408 407 416 423
4856 17 407 408 409 422
4857 17 406 405 404 420
4858 17 406 405 417 424
4859 17 406 407 408 421
4860 17 406 407 416 423
4861 17 405 404 403 419
4862 17 404 405 417 424
4863 17 402 403 404 420
4864 17 402 418 417 424
4865 17 400 402 403 419
4866 17 399 418 417 424
4867 17 392 377 378 393
4868 4 389 374 375 390
4869 4 389 374 375 391
4870 4 388 374 375 390
4871 4 388 374 375 391
4872 1 387 373 374 388
4873 1 387 373 374 389
4874 17 384 370 369 386
4875 17 384 365 366 385
4876 9 383 381 382 395
4877 2 383 376 375 390
4878 2 383 376 375 391
4879 17 383 376 377 392
4880 17 382 381 383 396
4881 17 381 379 378 393
4882 9 381 379 380 394
4883 17 380 379 378 393
4884 17 379 378 377 392
4885 9 379 381 382 395
4886 17 379 381 383 396
4887 9 378 379 380 394
4888 2 377 376 375 390
4889 2 377 376 375 391
4890 17 377 376 383 396
4891 4 376 375 374 388
4892 4 376 375 374 389
4893 17 376 377 378 393
4894 1 375 374 373 387
4895 17 375 376 377 392
4896 17 375 376 383 396
4897 4 373 374 375 390
4898 4 373 374 375 391
4899 15 372 371 373 387
4900 16 372 371 373 387
4901 17 371 370 369 386
4902 17 371 370 384 397
4903 2 371 373 374 388
4904 2 371 373 374 389
4905 16 370 371 373 387
4906 17 369 367 366 385
4907 17 369 370 384 397
4908 17 368 367 366 385
4909 17 368 367 369 386
4910 17 366 365 384 397
4911 17 366 367 369 386
4912 17 364 365 366 385
4913 17 364 365 384 397
4914 17 360 347 348 361
4915 17 358 342 343 359
4916 17 357 341 342 358
4917 17 356 344 343 359
4918 17 355 346 347 360
4919 17 354 349 348 361
4920 17 352 354 355 362
4921 17 350 349 348 361
4922 17 349 348 347 360
4923 17 349 354 355 362
4924 17 347 346 355 362
4925 17 346 347 348 361
4926 17 345 344 343 359
4927 17 345 344 356 363
4928 17 345 346 347 360
4929 17 345 346 355 362
4930 17 344 343 342 358
4931 17 343 344 356 363
4932 17 341 342 343 359
4933 17 341 357 356 363
4934 17 339 341 342 358
4935 17 338 357 356 363
4936 17 335 327 328 336
4937 17 333 325 326 334
4938 17 331 321 322 332
4939 17 329 316 317 330
4940 17 328 315 316 329
4941 17 327 318 317 330
4942 17 326 320 321 331
4943 17 325 323 322 332
4944 17 324 323 322 332
4945 17 324 323 325 333
4946 17 323 322 321 331
4947 17 323 325 326 334
4948 17 322 323 325 333
4949 17 321 320 326 334
4950 17 320 321 322 332
4951 17 320 326 325 333
4952 17 319 318 317 330
4953 17 319 318 327 335
4954 17 319 320 321 331
4955 17 319 320 326 334
4956 17 318 317 316 329
4957 17 318 327 328 336
4958 17 317 318 327 335
4959 17 316 315 328 336
4960 17 315 316 317 330
4961 17 315 328 327 335
4962 17 314 315 316 329
4963 17 314 315 328 336
4964 17 310 297 298 311
4965 17 308 292 293 309
4966 17 307 291 292 308
4967 17 306 294 293 309
4968 17 305 296 297 310
4969 17 304 299 298 311
4970 17 302 304 305 312
4971 17 300 299 298 311
4972 17 299 298 297 310
4973 17 299 304 305 312
4974 17 297 296 305 312
4975 17 296 297 298 311
4976 17 295 294 293 309
4977 17 295 294 306 313
4978 17 295 296 297 310
4979 17 295 296 305 312
4980 17 294 293 292 308
4981 17 293 294 306 313
4982 17 291 292 293 309
4983 17 291 307 306 313
4984 17 289 291 292 308
4985 17 288 307 306 313
4986 17 285 277 278 286
4987 17 283 275 276 284
4988 17 281 271 272 282
4989 17 279 266 267 280
4990 17 278 265 266 279
4991 17 277 268 267 280
4992 17 276 270 271 281
4993 17 275 273 272 282
4994 17 274 273 272 282
4995 17 274 273 275 283
4996 17 273 272 271 281
4997 17 273 275 276 284
4998 17 272 273 275 283
4999 17 271 270 276 284
5000 17 270 271 272 282
5001 17 270 276 275 283
5002 17 269 268 267 280
5003 17 269 268 277 285
5004 17 269 270 271 281
5005 17 269 270 276 284
5006 17 268 267 266 279
5007 17 268 277 278 286
5008 17 267 268 277 285
5009 17 266 265 278 286
5010 17 265 266 267 280
5011 17 265 278 277 285
5012 17 264 265 266 279
5013 17 264 265 278 286
5014 17 260 247 248 261
5015 17 258 242 243 259
5016 17 257 241 242 258
5017 17 256 244 243 259
5018 17 255 246 247 260
5019 17 254 249 248 261
5020 17 252 254 255 262
5021 17 250 249 248 261
5022 17 249 248 247 260
5023 17 249 254 255 262
5024 17 247 246 255 262
5025 17 246 247 248 261
5026 17 245 244 243 259
5027 17 245 244 256 263
5028 17 245 246 247 260
5029 17 245 246 255 262
5030 17 244 243 242 258
5031 17 243 244 256 263
5032 17 241 242 243 259
5033 17 241 257 256 263
5034 17 239 241 242 258
5035 17 238 257 256 263
5036 17 235 227 228 236
5037 17 233 225 226 234
5038 17 231 221 222 232
5039 17 229 216 217 230
5040 17 228 215 216 229
5041 17 227 218 217 230
5042 17 226 220 221 231
5043 17 225 223 222 232
5044 17 224 223 222 232
5045 17 224 223 225 233
5046 17 223 222 221 231
5047 17 223 225 226 234
5048 17 222 223 225 233
5049 17 221 220 226 234
5050 17 220 221 222 232
5051 17 220 226 225 233
5052 17 219 218 217 230
5053 17 219 218 227 235
5054 17 219 220 221 231
5055 17 219 220 226 234
5056 17 218 217 216 229
5057 17 218 227 228 236
5058 17 217 218 227 235
5059 17 216 215 228 236
5060 17 215 216 217 230
5061 17 215 228 227 235
5062 17 214 215 216 229
5063 17 214 215 228 236
5064 17 210 197 198 211
5065 17 208 192 193 209
5066 17 207 191 192 208
5067 17 206 194 193 209
5068 17 205 196 197 210
5069 17 204 199 198 211
5070 17 202 204 205 212
5071 17 200 199 198 211
5072 17 199 198 197 210
5073 17 199 204 205 212
5074 17 197 196 205 212
5075 17 196 197 198 211
5076 17 195 194 193 209
5077 17 195 194 206 213
5078 17 195 196 197 210
5079 17 195 196 205 212
5080 17 194 193 192 208
5081 17 193 194 206 213
5082 17 191 192 193 209
5083 17 191 207 206 213
5084 17 189 191 192 208
5085 17 188 207 206 213
5086 17 185 177 178 186
5087 17 183 175 176 184
5088 17 181 171 172 182
5089 17 179 166 167 180
5090 17 178 165 166 179
5091 17 177 168 167 180
5092 17 176 170 171 181
5093 17 175 173 172 182
5094 17 174 173 172 182
5095 17 174 173 175 183
5096 17 173 172 171 181
5097 17 173 175 176 184
5098 17 172 173 175 183
5099 17 171 170 176 184
5100 17 170 171 172 182
5101 17 170 176 175 183
5102 17 169 168 167 180
5103 17 169 168 177 185
5104 17 169 170 171 181
5105 17 169 170 176 184
5106 17 168 167 166 179
5107 17 168 177 178 186
5108 17 167 168 177 185
5109 17 166 165 178 186
5110 17 165 166 167 180
5111 17 165 178 177 185
5112 17 164 165 166 179
5113 17 164 165 178 186
5114 17 160 147 148 161
5115 17 158 142 143 159
5116 17 157 141 142 158
5117 17 156 144 143 159
5118 17 155 146 147 160
5119 17 154 149 148 161
5120 17 152 154 155 162
5121 17 150 149 148 161
5122 17 149 148 147 160
5123 17 149 154 155 162
5124 17 147 146 155 162
5125 17 146 147 148 161
5126 17 145 144 143 159
5127 17 145 144 156 163
5128 17 145 146 147 160
5129 17 145 146 155 162
5130 17 144 143 142 158
5131 17 143 144 156 163
5132 17 141 142 143 159
5133 17 141 157 156 163
5134 17 139 141 142 158
5135 17 138 157 156 163
5136 17 135 127 128 136
5137 17 133 125 126 134
5138 17 131 121 122 132
5139 17 129 116 117 130
5140 17 128 115 116 129
5141 17 127 118 117 130
5142 17 126 120 121 131
5143 17 125 123 122 132
5144 17 124 123 122 132
5145 17 124 123 125 133
5146 17 123 122 121 131
5147 17 123 125 126 134
5148 17 122 123 125 133
5149 17 121 120 126 134
5150 17 120 121 122 132
5151 17 120 126 125 133
5152 17 119 118 117 130
5153 17 119 118 127 135
5154 17 119 120 121 131
5155 17 119 120 126 134
5156 17 118 117 116 129
5157 17 118 127 128 136
5158 17 117 118 127 135
5159 17 116 115 128 136
5160 17 115 116 117 130
5161 17 115 128 127 135
5162 17 114 115 116 129
5163 17 114 115 128 136
5164 17 110 97 98 111
5165 17 108 92 93 109
5166 17 107 91 92 108
5167 17 106 94 93 109
5168 17 105 96 97 110
5169 17 104 99 98 111
5170 17 102 104 105 112
5171 17 100 99 98 111
5172 17 99 98 97 110
5173 17 99 104 105 112
5174 17 97 96 105 112
5175 17 96 97 98 111
5176 17 95 94 93 109
5177 17 95 94 106 113
5178 17 95 96 97 110
5179 17 95 96 105 112
5180 17 94 93 92 108
5181 17 93 94 106 113
5182 17 91 92 93 109
5183 17 91 107 106 113
5184 17 89 91 92 108
5185 17 88 107 106 113
5186 17 81 66 67 82
5187 4 78 63 64 79
5188 4 78 63 64 80
5189 4 77 63 64 79
5190 4 77 63 64 80
5191 1 76 62 63 77
5192 1 76 62 63 78
5193 17 73 59 58 75
5194 17 73 54 55 74
5195 9 72 70 71 84
5196 2 72 65 64 79
5197 2 72 65 64 80
5198 17 72 65 66 81
5199 17 71 70 72 85
5200 17 70 68 67 82
5201 9 70 68 69 83
5202 17 69 68 67 82
5203 17 68 67 66 81
5204 9 68 70 71 84
5205 17 68 70 72 85
5206 9 67 68 69 83
5207 2 66 65 64 79
5208 2 66 65 64 80
5209 17 66 65 72 85
5210 4 65 64 63 77
5211 4 65 64 63 78
5212 17 65 66 67 82
5213 1 64 63 62 76
5214 17 64 65 66 81
5215 17 64 65 72 85
5216 4 62 63 64 79
5217 4 62 63 64 80
5218 15 61 60 62 76
5219 16 61 60 62 76
5220 17 60 59 58 75
5221 17 60 59 73 86
5222 2 60 62 63 77
5223 2 60 62 63 78
5224 16 59 60 62 76
5225 17 58 56 55 74
5226 17 58 59 73 86
5227 17 57 56 55 74
5228 17 57 56 58 75
5229 17 55 54 73 86
5230 17 55 56 58 75
5231 17 53 54 55 74
5232 17 53 54 73 86
5233 17 49 36 37 50
5234 17 47 31 32 48
5235 17 46 30 31 47
5236 17 45 33 32 48
5237 17 44 35 36 49
5238 17 43 38 37 50
5239 17 41 43 44 51
5240 17 39 38 37 50
5241 17 38 37 36 49
5242 17 38 43 44 51
5243 17 36 35 44 51
5244 17 35 36 37 50
5245 17 34 33 32 48
5246 17 34 33 45 52
5247 17 34 35 36 49
5248 17 34 35 44 51
5249 17 33 32 31 47
5250 17 32 33 45 52
5251 17 30 31 32 48
5252 17 30 46 45 52
5253 17 28 30 31 47
5254 17 27 46 45 52
5255 17 24 14 15 25
5256 17 22 12 13 23
5257 17 20 8 9 21
5258 17 18 3 4 19
5259 14 16 1 2 15
5260 14 17 1 2 15
5261 17 15 2 3 18
5262 17 14 5 4 19
5263 17 13 7 8 20
5264 17 12 10 9 21
5265 17 11 10 9 21
5266 17 11 10 12 22
5267 17 10 9 8 20
5268 17 10 12 13 23
5269 17 9 10 12 22
5270 17 8 7 13 23
5271 17 7 8 9 21
5272 17 7 13 12 22
5273 17 6 5 4 19
5274 17 6 5 14 24
5275 17 6 7 8 20
5276 17 6 7 13 23
5277 17 5 4 3 18
5278 17 5 14 15 25
5279 17 4 5 14 24
5280 14 16 1 2 3
5281 14 17 1 2 3
5282 17 3 2 15 25
5283 17 2 3 4 19
5284 17 2 15 14 24
5285 17 1 2 3 18
5286 17 1 2 15 25
5287 17 897 887 888 898
5288 17 895 885 886 896
5289 17 891 881 882 892
5290 17 889 876 877 890
5291 17 888 875 876 889
5292 17 887 878 877 890
5293 17 886 880 881 891
5294 17 885 883 882 892
5295 14 885 883 884 893
5296 14 885 883 884 894
5297 17 884 883 882 892
5298 17 884 883 885 895
5299 17 883 882 881 891
5300 17 883 885 886 896
5301 14 882 883 884 893
5302 14 882 883 884 894
5303 17 882 883 885 895
5304 17 881 880 886 896
5305 17 880 881 882 892
5306 17 880 886 885 895
5307 17 879 878 877 890
5308 17 879 878 887 897
5309 17 879 880 881 891
5310 17 879 880 886 896
5311 17 878 877 876 889
5312 17 878 887 888 898
5313 17 877 878 887 897
5314 17 876 875 888 898
5315 17 875 876 877 890
5316 17 875 888 887 897
5317 17 874 875 876 889
5318 17 874 875 888 898
5319 17 870 857 858 871
5320 17 868 852 853 869
5321 17 867 851 852 868
5322 17 866 854 853 869
5323 17 865 856 857 870
5324 17 864 859 858 871
5325 17 862 864 865 872
5326 17 860 859 858 871
5327 17 859 858 857 870
5328 17 859 864 865 872
5329 17 857 856 865 872
5330 17 856 857 858 871
5331 17 855 854 853 869
5332 17 855 854 866 873
5333 17 855 856 857 870
5334 17 855 856 865 872
5335 17 854 853 852 868
5336 17 853 854 866 873
5337 17 851 852 853 869
5338 17 851 867 866 873
5339 17 849 851 852 868
5340 17 848 867 866 873
5341 17 841 826 827 842
5342 4 838 823 824 839
5343 4 838 823 824 840
5344 4 837 823 824 839
5345 4 837 823 824 840
5346 1 836 822 823 837
5347 1 836 822 823 838
5348 17 833 819 818 835
5349 17 833 814 815 834
5350 9 832 830 831 844
5351 2 832 825 824 839
5352 2 832 825 824 840
5353 17 832 825 826 841
5354 17 831 830 832 845
5355 17 830 828 827 842
5356 9 830 828 829 843
5357 17 829 828 827 842
5358 17 828 827 826 841
5359 9 828 830 831 844
5360 17 828 830 832 845
5361 9 827 828 829 843
5362 2 826 825 824 839
5363 2 826 825 824 840
5364 17 826 825 832 845
5365 4 825 824 823 837
5366 4 825 824 823 838
5367 17 825 826 827 842
5368 1 824 823 822 836
5369 17 824 825 826 841
5370 17 824 825 832 845
5371 4 822 823 824 839
5372 4 822 823 824 840
5373 15 821 820 822 836
5374 16 821 820 822 836
5375 17 820 819 818 835
5376 17 820 819 833 846
5377 2 820 822 823 837
5378 2 820 822 823 838
5379 16 819 820 822 836
5380 17 818 816 815 834
5381 17 818 819 833 846
5382 17 817 816 815 834
5383 17 817 816 818 835
5384 17 815 814 833 846
5385 17 815 816 818 835
5386 17 813 814 815 834
5387 17 813 814 833 846
5388 17 809 796 797 810
5389 17 807 791 792 808
5390 17 806 790 791 807
5391 17 805 793 792 808
5392 17 804 795 796 809
5393 17 803 798 797 810
5394 17 801 803 804 811
5395 17 799 798 797 810
5396 17 798 797 796 809
5397 17 798 803 804 811
5398 17 796 795 804 811
5399 17 795 796 797 810
5400 17 794 793 792 808
5401 17 794 793 805 812
5402 17 794 795 796 809
5403 17 794 795 804 811
5404 17 793 792 791 807
5405 17 792 793 805 812
5406 17 790 791 792 808
5407 17 790 806 805 812
5408 17 788 790 791 807
5409 17 787 806 805 812
5410 17 784 776 777 785
5411 17 782 774 775 783
5412 17 780 770 771 781
5413 17 778 765 766 779
5414 17 777 764 765 778
5415 17 776 767 766 779
5416 17 775 769 770 780
5417 17 774 772 771 781
5418 17 773 772 771 781
5419 17 773 772 774 782
5420 17 772 771 770 780
5421 17 772 774 775 783
5422 17 771 772 774 782
5423 17 770 769 775 783
5424 17 769 770 771 781
5425 17 769 775 774 782
5426 17 768 767 766 779
5427 17 768 767 776 784
5428 17 768 769 770 780
5429 17 768 769 775 783
5430 17 767 766 765 778
5431 17 767 776 777 785
5432 17 766 767 776 784
5433 17 765 764 777 785
5434 17 764 765 766 779
5435 17 764 777 776 784
5436 17 763 764 765 778
5437 17 763 764 777 785
5438 17 759 746 747 760
5439 17 757 741 742 758
5440 17 756 740 741 757
5441 17 755 743 742 758
5442 17 754 745 746 759
5443 17 753 748 747 760
5444 17 751 753 754 761
5445 17 749 748 747 760
5446 17 748 747 746 759
5447 17 748 753 754 761
5448 17 746 745 754 761
5449 17 745 746 747 760
5450 17 744 743 742 758
5451 17 744 743 755 762
5452 17 744 745 746 759
5453 17 744 745 754 761
5454 17 743 742 741 757
5455 17 742 743 755 762
5456 17 740 741 742 758
5457 17 740 756 755 762
5458 17 738 740 741 757
5459 17 737 756 755 762
5460 17 734 726 727 735
5461 17 732 724 725 733
5462 17 730 720 721 731
5463 17 728 715 716 729
5464 17 727 714 715 728
5465 17 726 717 716 729
5466 17 725 719 720 730
5467 17 724 722 721 731
5468 17 723 722 721 731
5469 17 723 722 724 732
5470 17 722 721 720 730
5471 17 722 724 725 733
5472 17 721 722 724 732
5473 17 720 719 725 733
5474 17 719 720 721 731
5475 17 719 725 724 732
5476 17 718 717 716 729
5477 17 718 717 726 734
5478 17 718 719 720 730
5479 17 718 719 725 733
5480 17 717 716 715 728
5481 17 717 726 727 735
5482 17 716 717 726 734
5483 17 715 714 727 735
5484 17 714 715 716 729
5485 17 714 727 726 734
5486 17 713 714 715 728
5487 17 713 714 727 735
5488 17 709 696 697 710
5489 17 707 691 692 708
5490 17 706 690 691 707
5491 17 705 693 692 708
5492 17 704 695 696 709
5493 17 703 698 697 710
5494 17 701 703 704 711
5495 17 699 698 697 710
5496 17 698 697 696 709
5497 17 698 703 704 711
5498 17 696 695 704 711
5499 17 695 696 697 710
5500 17 694 693 692 708
5501 17 694 693 705 712
5502 17 694 695 696 709
5503 17 694 695 704 711
5504 17 693 692 691 707
5505 17 692 693 705 712
5506 17 690 691 692 708
5507 17 690 706 705 712
5508 17 688 690 691 707
5509 17 687 706 705 712
5510 17 684 676 677 685
5511 17 682 674 675 683
5512 17 680 670 671 681
5513 17 678 665 666 679
5514 17 677 664 665 678
5515 17 676 667 666 679
5516 17 675 669 670 680
5517 17 674 672 671 681
5518 17 673 672 671 681
5519 17 673 672 674 682
5520 17 672 671 670 680
5521 17 672 674 675 683
5522 17 671 672 674 682
5523 17 670 669 675 683
5524 17 669 670 671 681
5525 17 669 675 674 682
5526 17 668 667 666 679
5527 17 668 667 676 684
5528 17 668 669 670 680
5529 17 668 669 675 683
5530 17 667 666 665 678
5531 17 667 676 677 685
5532 17 666 667 676 684
5533 17 665 664 677 685
5534 17 664 665 666 679
5535 17 664 677 676 684
5536 17 663 664 665 678
5537 17 663 664 677 685
5538 17 659 646 647 660
5539 17 657 641 642 658
5540 17 656 640 641 657
5541 17 655 643 642 658
5542 17 654 645 646 659
5543 17 653 648 647 660
5544 17 651 653 654 661
5545 17 649 648 647 660
5546 17 648 647 646 659
5547 17 648 653 654 661
5548 17 646 645 654 661
5549 17 645 646 647 660
5550 17 644 643 642 658
5551 17 644 643 655 662
5552 17 644 645 646 659
5553 17 644 645 654 661
5554 17 643 642 641 657
5555 17 642 643 655 662
5556 17 640 641 642 658
5557 17 640 656 655 662
5558 17 638 640 641 657
5559 17 637 656 655 662
5560 17 634 626 627 635
5561 17 632 624 625 633
5562 17 630 620 621 631
5563 17 628 615 616 629
5564 17 627 614 615 628
5565 17 626 617 616 629
5566 17 625 619 620 630
5567 17 624 622 621 631
5568 17 623 622 621 631
5569 17 623 622 624 632
5570 17 622 621 620 630
5571 17 622 624 625 633
5572 17 621 622 624 632
5573 17 620 619 625 633
5574 17 619 620 621 631
5575 17 619 625 624 632
5576 17 618 617 616 629
5577 17 618 617 626 634
5578 17 618 619 620 630
5579 17 618 619 625 633
5580 17 617 616 615 628
5581 17 617 626 627 635
5582 17 616 617 626 634
5583 17 615 614 627 635
5584 17 614 615 616 629
5585 17 614 627 626 634
5586 17 613 614 615 628
5587 17 613 614 627 635
5588 17 609 596 597 610
5589 17 607 591 592 608
5590 17 606 590 591 607
5591 17 605 593 592 608
5592 17 604 595 596 609
5593 17 603 598 597 610
5594 17 601 603 604 611
5595 17 599 598 597 610
5596 17 598 597 596 609
5597 17 598 603 604 611
5598 17 596 595 604 611
5599 17 595 596 597 610
5600 17 594 593 592 608
5601 17 594 593 605 612
5602 17 594 595 596 609
5603 17 594 595 604 611
5604 17 593 592 591 607
5605 17 592 593 605 612
5606 17 590 591 592 608
5607 17 590 606 605 612
5608 17 588 590 591 607
5609 17 587 606 605 612
5610 17 584 576 577 585
5611 17 582 574 575 583
5612 17 580 570 571 581
5613 17 578 565 566 579
5614 17 577 564 565 578
5615 17 576 567 566 579
5616 17 575 569 570 580
5617 17 574 572 571 581
5618 17 573 572 571 581
5619 17 573 572 574 582
5620 17 572 571 570 580
5621 17 572 574 575 583
5622 17 571 572 574 582
5623 17 570 569 575 583
5624 17 569 570 571 581
5625 17 569 575 574 582
5626 17 568 567 566 579
5627 17 568 567 576 584
5628 17 568 569 570 580
5629 17 568 569 575 583
5630 17 567 566 565 578
5631 17 567 576 577 585
5632 17 566 567 576 584
5633 17 565 564 577 585
5634 17 564 565 566 579
5635 17 564 577 576 584
5636 17 563 564 565 578
5637 17 563 564 577 585
5638 17 559 546 547 560
5639 17 557 541 542 558
5640 17 556 540 541 557
5641 17 555 543 542 558
5642 17 554 545 546 559
5643 17 553 548 547 560
5644 17 551 553 554 561
5645 17 549 548 547 560
5646 17 548 547 546 559
5647 17 548 553 554 561
5648 17 546 545 554 561
5649 17 545 546 547 560
5650 17 544 543 542 558
5651 17 544 543 555 562
5652 17 544 545 546 559
5653 17 544 545 554 561
5654 17 543 542 541 557
5655 17 542 543 555 562
5656 17 540 541 542 558
5657 17 540 556 555 562
5658 17 538 540 541 557
5659 17 537 556 555 562
5660 17 530 515 516 531
5661 4 527 512 513 528
5662 4 527 512 513 529
5663 4 526 512 513 528
5664 4 526 512 513 529
5665 1 525 511 512 526
5666 1 525 511 512 527
5667 17 522 508 507 524
5668 17 522 503 504 523
5669 9 521 519 520 533
5670 2 521 514 513 528
5671 2 521 514 513 529
5672 17 521 514 515 530
5673 17 520 519 521 534
5674 17 519 517 516 531
5675 9 519 517 518 532
5676 17 518 517 516 531
5677 17 517 516 515 530
5678 9 517 519 520 533
5679 17 517 519 521 534
5680 9 516 517 518 532
5681 2 515 514 513 528
5682 2 515 514 513 529
5683 17 515 514 521 534
5684 4 514 513 512 526
5685 4 514 513 512 527
5686 17 514 515 516 531
5687 1 513 512 511 525
5688 17 513 514 515 530
5689 17 513 514 521 534
5690 4 511 512 513 528
5691 4 511 512 513 529
5692 15 510 509 511 525
5693 16 510 509 511 525
5694 17 509 508 507 524
5695 17 509 508 522 535
5696 2 509 511 512 526
5697 2 509 511 512 527
5698 16 508 509 511 525
5699 17 507 505 504 523
5700 17 507 508 522 535
5701 17 506 505 504 523
5702 17 506 505 507 524
5703 17 504 503 522 535
5704 17 504 505 507 524
5705 17 502 503 504 523
5706 17 502 503 522 535
5707 17 498 485 486 499
5708 17 496 480 481 497
5709 17 495 479 480 496
5710 17 494 482 481 497
5711 17 493 484 485 498
5712 17 492 487 486 499
5713 17 490 492 493 500
5714 17 488 487 486 499
5715 17 487 486 485 498
5716 17 487 492 493 500
5717 17 485 484 493 500
5718 17 484 485 486 499
5719 17 483 482 481 497
5720 17 483 482 494 501
5721 17 483 484 485 498
5722 17 483 484 493 500
5723 17 482 481 480 496
5724 17 481 482 494 501
5725 17 479 480 481 497
5726 17 479 495 494 501
5727 17 477 479 480 496
5728 17 476 495 494 501
5729 17 473 463 464 474
5730 17 471 461 462 472
5731 17 469 457 458 470
5732 17 467 452 453 468
5733 14 464 451 450 465
5734 14 464 451 450 466
5735 17 464 451 452 467
5736 17 463 454 453 468
5737 17 462 456 457 469
5738 17 461 459 458 470
5739 17 460 459 458 470
5740 17 460 459 461 471
5741 17 459 458 457 469
5742 17 459 461 462 472
5743 17 458 459 461 471
5744 17 457 456 462 472
5745 17 456 457 458 470
5746 17 456 462 461 471
5747 17 455 454 453 468
5748 17 455 454 463 473
5749 17 455 456 457 469
5750 17 455 456 462 472
5751 17 454 453 452 467
5752 17 454 463 464 474
5753 17 453 454 463 473
5754 14 452 451 450 465
5755 14 452 451 450 466
5756 17 452 451 464 474
5757 17 451 452 453 468
5758 17 451 464 463 473
5759 17 450 451 452 467
5760 17 450 451 464 474
5761 17 1346 1336 1337 1347
5762 17 1344 1334 1335 1345
5763 17 1340 1330 1331 1341
5764 17 1338 1325 1326 1339
5765 17 1337 1324 1325 1338
5766 17 1336 1327 1326 1339
5767 17 1335 1329 1330 1340
5768 17 1334 1332 1331 1341
5769 14 1334 1332 1333 1342
5770 14 1334 1332 1333 1343
5771 17 1333 1332 1331 1341
5772 17 1333 1332 1334 1344
5773 17 1332 1331 1330 1340
5774 17 1332 1334 1335 1345
5775 14 1331 1332 1333 1342
5776 14 1331 1332 1333 1343
5777 17 1331 1332 1334 1344
5778 17 1330 1329 1335 1345
5779 17 1329 1330 1331 1341
5780 17 1329 1335 1334 1344
5781 17 1328 1327 1326 1339
5782 17 1328 1327 1336 1346
5783 17 1328 1329 1330 1340
5784 17 1328 1329 1335 1345
5785 17 1327 1326 1325 1338
5786 17 1327 1336 1337 1347
5787 17 1326 1327 1336 1346
5788 17 1325 1324 1337 1347
5789 17 1324 1325 1326 1339
5790 17 1324 1337 1336 1346
5791 17 1323 1324 1325 1338
5792 17 1323 1324 1337 1347
5793 17 1319 1306 1307 1320
5794 17 1317 1301 1302 1318
5795 17 1316 1300 1301 1317
5796 17 1315 1303 1302 1318
5797 17 1314 1305 1306 1319
5798 17 1313 1308 1307 1320
5799 17 1311 1313 1314 1321
5800 17 1309 1308 1307 1320
5801 17 1308 1307 1306 1319
5802 17 1308 1313 1314 1321
5803 17 1306 1305 1314 1321
5804 17 1305 1306 1307 1320
5805 17 1304 1303 1302 1318
5806 17 1304 1303 1315 1322
5807 17 1304 1305 1306 1319
5808 17 1304 1305 1314 1321
5809 17 1303 1302 1301 1317
5810 17 1302 1303 1315 1322
5811 17 1300 1301 1302 1318
5812 17 1300 1316 1315 1322
5813 17 1298 1300 1301 1317
5814 17 1297 1316 1315 1322
5815 17 1290 1275 1276 1291
5816 4 1287 1272 1273 1288
5817 4 1287 1272 1273 1289
5818 4 1286 1272 1273 1288
5819 4 1286 1272 1273 1289
5820 1 1285 1271 1272 1286
5821 1 1285 1271 1272 1287
5822 17 1282 1268 1267 1284
5823 17 1282 1263 1264 1283
5824 9 1281 1279 1280 1293
5825 2 1281 1274 1273 1288
5826 2 1281 1274 1273 1289
5827 17 1281 1274 1275 1290
5828 17 1280 1279 1281 1294
5829 17 1279 1277 1276 1291
5830 9 1279 1277 1278 1292
5831 17 1278 1277 1276 1291
5832 17 1277 1276 1275 1290
5833 9 1277 1279 1280 1293
5834 17 1277 1279 1281 1294
5835 9 1276 1277 1278 1292
5836 2 1275 1274 1273 1288
5837 2 1275 1274 1273 1289
5838 17 1275 1274 1281 1294
5839 4 1274 1273 1272 1286
5840 4 1274 1273 1272 1287
5841 17 1274 1275 1276 1291
5842 1 1273 1272 1271 1285
5843 17 1273 1274 1275 1290
5844 17 1273 1274 1281 1294
5845 4 1271 1272 1273 1288
5846 4 1271 1272 1273 1289
5847 15 1270 1269 1271 1285
5848 16 1270 1269 1271 1285
5849 17 1269 1268 1267 1284
5850 17 1269 1268 1282 1295
5851 2 1269 1271 1272 1286
5852 2 1269 1271 1272 1287
5853 16 1268 1269 1271 1285
5854 17 1267 1265 1264 1283
5855 17 1267 1268 1282 1295
5856 17 1266 1265 1264 1283
5857 17 1266 1265 1267 1284
5858 17 1264 1263 1282 1295
5859 17 1264 1265 1267 1284
5860 17 1262 1263 1264 1283
5861 17 1262 1263 1282 1295
5862 17 1258 1245 1246 1259
5863 17 1256 1240 1241 1257
5864 17 1255 1239 1240 1256
5865 17 1254 1242 1241 1257
5866 17 1253 1244 1245 1258
5867 17 1252 1247 1246 1259
5868 17 1250 1252 1253 1260
5869 17 1248 1247 1246 1259
5870 17 1247 1246 1245 1258
5871 17 1247 1252 1253 1260
5872 17 1245 1244 1253 1260
5873 17 1244 1245 1246 1259
5874 17 1243 1242 1241 1257
5875 17 1243 1242 1254 1261
5876 17 1243 1244 1245 1258
5877 17 1243 1244 1253 1260
5878 17 1242 1241 1240 1256
5879 17 1241 1242 1254 1261
5880 17 1239 1240 1241 1257
5881 17 1239 1255 1254 1261
5882 17 1237 1239 1240 1256
5883 17 1236 1255 1254 1261
5884 17 1233 1225 1226 1234
5885 17 1231 1223 1224 1232
5886 17 1229 1219 1220 1230
5887 17 1227 1214 1215 1228
5888 17 1226 1213 1214 1227
5889 17 1225 1216 1215 1228
5890 17 1224 1218 1219 1229
5891 17 1223 1221 1220 1230
5892 17 1222 1221 1220 1230
5893 17 1222 1221 1223 1231
5894 17 1221 1220 1219 1229
5895 17 1221 1223 1224 1232
5896 17 1220 1221 1223 1231
5897 17 1219 1218 1224 1232
5898 17 1218 1219 1220 1230
5899 17 1218 1224 1223 1231
5900 17 1217 1216 1215 1228
5901 17 1217 1216 1225 1233
5902 17 1217 1218 1219 1229
5903 17 1217 1218 1224 1232
5904 17 1216 1215 1214 1227
5905 17 1216 1225 1226 1234
5906 17 1215 1216 1225 1233
5907 17 1214 1213 1226 1234
5908 17 1213 1214 1215 1228
5909 17 1213 1226 1225 1233
5910 17 1212 1213 1214 1227
5911 17 1212 1213 1226 1234
5912 17 1208 1195 1196 1209
5913 17 1206 1190 1191 1207
5914 17 1205 1189 1190 1206
5915 17 1204 1192 1191 1207
5916 17 1203 1194 1195 1208
5917 17 1202 1197 1196 1209
5918 17 1200 1202 1203 1210
5919 17 1198 1197 1196 1209
5920 17 1197 1196 1195 1208
5921 17 1197 1202 1203 1210
5922 17 1195 1194 1203 1210
5923 17 1194 1195 1196 1209
5924 17 1193 1192 1191 1207
5925 17 1193 1192 1204 1211
5926 17 1193 1194 1195 1208
5927 17 1193 1194 1203 1210
5928 17 1192 1191 1190 1206
5929 17 1191 1192 1204 1211
5930 17 1189 1190 1191 1207
5931 17 1189 1205 1204 1211
5932 17 1187 1189 1190 1206
5933 17 1186 1205 1204 1211
5934 17 1183 1175 1176 1184
5935 17 1181 1173 1174 1182
5936 17 1179 1169 1170 1180
5937 17 1177 1164 1165 1178
5938 17 1176 1163 1164 1177
5939 17 1175 1166 1165 1178
5940 17 1174 1168 1169 1179
5941 17 1173 1171 1170 1180
5942 17 1172 1171 1170 1180
5943 17 1172 1171 1173 1181
5944 17 1171 1170 1169 1179
5945 17 1171 1173 1174 1182
5946 17 1170 1171 1173 1181
5947 17 1169 1168 1174 1182
5948 17 1168 1169 1170 1180
5949 17 1168 1174 1173 1181
5950 17 1167 1166 1165 1178
5951 17 1167 1166 1175 1183
5952 17 1167 1168 1169 1179
5953 17 1167 1168 1174 1182
5954 17 1166 1165 1164 1177
5955 17 1166 1175 1176 1184
5956 17 1165 1166 1175 1183
5957 17 1164 1163 1176 1184
5958 17 1163 1164 1165 1178
5959 17 1163 1176 1175 1183
5960 17 1162 1163 1164 1177
5961 17 1162 1163 1176 1184
5962 17 1158 1145 1146 1159
5963 17 1156 1140 1141 1157
5964 17 1155 1139 1140 1156
5965 17 1154 1142 1141 1157
5966 17 1153 1144 1145 1158
5967 17 1152 1147 1146 1159
5968 17 1150 1152 1153 1160
5969 17 1148 1147 1146 1159
5970 17 1147 1146 1145 1158
5971 17 1147 1152 1153 1160
5972 17 1145 1144 1153 1160
5973 17 1144 1145 1146 1159
5974 17 1143 1142 1141 1157
5975 17 1143 1142 1154 1161
5976 17 1143 1144 1145 1158
5977 17 1143 1144 1153 1160
5978 17 1142 1141 1140 1156
5979 17 1141 1142 1154 1161
5980 17 1139 1140 1141 1157
5981 17 1139 1155 1154 1161
5982 17 1137 1139 1140 1156
5983 17 1136 1155 1154 1161
5984 17 1133 1125 1126 1134
5985 17 1131 1123 1124 1132
5986 17 1129 1119 1120 1130
5987 17 1127 1114 1115 1128
5988 17 1126 1113 1114 1127
5989 17 1125 1116 1115 1128
5990 17 1124 1118 1119 1129
5991 17 1123 1121 1120 1130
5992 17 1122 1121 1120 1130
5993 17 1122 1121 1123 1131
5994 17 1121 1120 1119 1129
5995 17 1121 1123 1124 1132
5996 17 1120 1121 1123 1131
5997 17 1119 1118 1124 1132
5998 17 1118 1119 1120 1130
5999 17 1118 1124 1123 1131
6000 17 1117 1116 1115 1128
6001 17 1117 1116 1125 1133
6002 17 1117 1118 1119 1129
6003 17 1117 1118 1124 1132
6004 17 1116 1115 1114 1127
6005 17 1116 1125 1126 1134
6006 17 1115 1116 1125 1133
6007 17 1114 1113 1126 1134
6008 17 1113 1114 1115 1128
6009 17 1113 1126 1125 1133
6010 17 1112 1113 1114 1127
6011 17 1112 1113 1126 1134
6012 17 1108 1095 1096 1109
6013 17 1106 1090 1091 1107
6014 17 1105 1089 1090 1106
6015 17 1104 1092 1091 1107
6016 17 1103 1094 1095 1108
6017 17 1102 1097 1096 1109
6018 17 1100 1102 1103 1110
6019 17 1098 1097 1096 1109
6020 17 1097 1096 1095 1108
6021 17 1097 1102 1103 1110
6022 17 1095 1094 1103 1110
6023 17 1094 1095 1096 1109
6024 17 1093 1092 1091 1107
6025 17 1093 1092 1104 1111
6026 17 1093 1094 1095 1108
6027 17 1093 1094 1103 1110
6028 17 1092 1091 1090 1106
6029 17 1091 1092 1104 1111
6030 17 1089 1090 1091 1107
6031 17 1089 1105 1104 1111
6032 17 1087 1089 1090 1106
6033 17 1086 1105 1104 1111
6034 17 1083 1075 1076 1084
6035 17 1081 1073 1074 1082
6036 17 1079 1069 1070 1080
6037 17 1077 1064 1065 1078
6038 17 1076 1063 1064 1077
6039 17 1075 1066 1065 1078
6040 17 1074 1068 1069 1079
6041 17 1073 1071 1070 1080
6042 17 1072 1071 1070 1080
6043 17 1072 1071 1073 1081
6044 17 1071 1070 1069 1079
6045 17 1071 1073 1074 1082
6046 17 1070 1071 1073 1081
6047 17 1069 1068 1074 1082
6048 17 1068 1069 1070 1080
6049 17 1068 1074 1073 1081
6050 17 1067 1066 1065 1078
6051 17 1067 1066 1075 1083
6052 17 1067 1068 1069 1079
6053 17 1067 1068 1074 1082
6054 17 1066 1065 1064 1077
6055 17 1066 1075 1076 1084
6056 17 1065 1066 1075 1083
6057 17 1064 1063 1076 1084
6058 17 1063 1064 1065 1078
6059 17 1063 1076 1075 1083
6060 17 1062 1063 1064 1077
6061 17 1062 1063 1076 1084
6062 17 1058 1045 1046 1059
6063 17 1056 1040 1041 1057
6064 17 1055 1039 1040 1056
6065 17 1054 1042 1041 1057
6066 17 1053 1044 1045 1058
6067 17 1052 1047 1046 1059
6068 17 1050 1052 1053 1060
6069 17 1048 1047 1046 1059
6070 17 1047 1046 1045 1058
6071 17 1047 1052 1053 1060
6072 17 1045 1044 1053 1060
6073 17 1044 1045 1046 1059
6074 17 1043 1042 1041 1057
6075 17 1043 1042 1054 1061
6076 17 1043 1044 1045 1058
6077 17 1043 1044 1053 1060
6078 17 1042 1041 1040 1056
6079 17 1041 1042 1054 1061
6080 17 1039 1040 1041 1057
6081 17 1039 1055 1054 1061
6082 17 1037 1039 1040 1056
6083 17 1036 1055 1054 1061
6084 17 1033 1025 1026 1034
6085 17 1031 1023 1024 1032
6086 17 1029 1019 1020 1030
6087 17 1027 1014 1015 1028
6088 17 1026 1013 1014 1027
6089 17 1025 1016 1015 1028
6090 17 1024 1018 1019 1029
6091 17 1023 1021 1020 1030
6092 17 1022 1021 1020 1030
6093 17 1022 1021 1023 1031
6094 17 1021 1020 1019 1029
6095 17 1021 1023 1024 1032
6096 17 1020 1021 1023 1031
6097 17 1019 1018 1024 1032
6098 17 1018 1019 1020 1030
6099 17 1018 1024 1023 1031
6100 17 1017 1016 1015 1028
6101 17 1017 1016 1025 1033
6102 17 1017 1018 1019 1029
6103 17 1017 1018 1024 1032
6104 17 1016 1015 1014 1027
6105 17 1016 1025 1026 1034
6106 17 1015 1016 1025 1033
6107 17 1014 1013 1026 1034
6108 17 1013 1014 1015 1028
6109 17 1013 1026 1025 1033
6110 17 1012 1013 1014 1027
6111 17 1012 1013 1026 1034
6112 17 1008 995 996 1009
6113 17 1006 990 991 1007
6114 17 1005 989 990 1006
6115 17 1004 992 991 1007
6116 17 1003 994 995 1008
6117 17 1002 997 996 1009
6118 17 1000 1002 1003 1010
6119 17 998 997 996 1009
6120 17 997 996 995 1008
6121 17 997 1002 1003 1010
6122 17 995 994 1003 1010
6123 17 994 995 996 1009
6124 17 993 992 991 1007
6125 17 993 992 1004 1011
6126 17 993 994 995 1008
6127 17 993 994 1003 1010
6128 17 992 991 990 1006
6129 17 991 992 1004 1011
6130 17 989 990 991 1007
6131 17 989 1005 1004 1011
6132 17 987 989 990 1006
6133 17 986 1005 1004 1011
6134 17 979 964 965 980
6135 4 976 961 962 977
6136 4 976 961 962 978
6137 4 975 961 962 977
6138 4 975 961 962 978
6139 1 974 960 961 975
6140 1 974 960 961 976
6141 17 971 957 956 973
6142 17 971 952 953 972
6143 9 970 968 969 982
6144 2 970 963 962 977
6145 2 970 963 962 978
6146 17 970 963 964 979
6147 17 969 968 970 983
6148 17 968 966 965 980
6149 9 968 966 967 981
6150 17 967 966 965 980
6151 17 966 965 964 979
6152 9 966 968 969 982
6153 17 966 968 970 983
6154 9 965 966 967 981
6155 2 964 963 962 977
6156 2 964 963 962 978
6157 17 964 963 970 983
6158 4 963 962 961 975
6159 4 963 962 961 976
6160 17 963 964 965 980
6161 1 962 961 960 974
6162 17 962 963 964 979
6163 17 962 963 970 983
6164 4 960 961 962 977
6165 4 960 961 962 978
6166 15 959 958 960 974
6167 16 959 958 960 974
6168 17 958 957 956 973
6169 17 958 957 971 984
6170 2 958 960 961 975
6171 2 958 960 961 976
6172 16 957 958 960 974
6173 17 956 954 953 972
6174 17 956 957 971 984
6175 17 955 954 953 972
6176 17 955 954 956 973
6177 17 953 952 971 984
6178 17 953 954 956 973
6179 17 951 952 953 972
6180 17 951 952 971 984
6181 17 947 934 935 948
6182 17 945 929 930 946
6183 17 944 928 929 945
6184 17 943 931 930 946
6185 17 942 933 934 947
6186 17 941 936 935 948
6187 17 939 941 942 949
6188 17 937 936 935 948
6189 17 936 935 934 947
6190 17 936 941 942 949
6191 17 934 933 942 949
6192 17 933 934 935 948
6193 17 932 931 930 946
6194 17 932 931 943 950
6195 17 932 933 934 947
6196 17 932 933 942 949
6197 17 931 930 929 945
6198 17 930 931 943 950
6199 17 928 929 930 946
6200 17 928 944 943 950
6201 17 926 928 929 945
6202 17 925 944 943 950
6203 17 922 912 913 923
6204 17 920 910 911 921
6205 17 918 906 907 919
6206 17 916 901 902 917
6207 14 913 900 899 914
6208 14 913 900 899 915
6209 17 913 900 901 916
6210 17 912 903 902 917
6211 17 911 905 906 918
6212 17 910 908 907 919
6213 17 909 908 907 919
6214 17 909 908 910 920
6215 17 908 907 906 918
6216 17 908 910 911 921
6217 17 907 908 910 920
6218 17 906 905 911 921
6219 17 905 906 907 919
6220 17 905 911 910 920
6221 17 904 903 902 917
6222 17 904 903 912 922
6223 17 904 905 906 918
6224 17 904 905 911 921
6225 17 903 902 901 916
6226 17 903 912 913 923
6227 17 902 903 912 922
6228 14 901 900 899 914
6229 14 901 900 899 915
6230 17 901 900 913 923
6231 17 900 901 902 917
6232 17 900 913 912 922
6233 17 899 900 901 916
6234 17 899 900 913 923
6235 17 1795 1785 1786 1796
6236 17 1793 1783 1784 1794
6237 17 1789 1779 1780 1790
6238 17 1787 1774 1775 1788
6239 17 1786 1773 1774 1787
6240 17 1785 1776 1775 1788
6241 17 1784 1778 1779 1789
6242 17 1783 1781 1780 1790
6243 14 1783 1781 1782 1791
6244 14 1783 1781 1782 1792
6245 17 1782 1781 1780 1790
6246 17 1782 1781 1783 1793
6247 17 1781 1780 1779 1789
6248 17 1781 1783 1784 1794
6249 14 1780 1781 1782 1791
6250 14 1780 1781 1782 1792
6251 17 1780 1781 1783 1793
6252 17 1779 1778 1784 1794
6253 17 1778 1779 1780 1790
6254 17 1778 1784 1783 1793
6255 17 1777 1776 1775 1788
6256 17 1777 1776 1785 1795
6257 17 1777 1778 1779 1789
6258 17 1777 1778 1784 1794
6259 17 1776 1775 1774 1787
6260 17 1776 1785 1786 1796
6261 17 1775 1776 1785 1795
6262 17 1774 1773 1786 1796
6263 17 1773 1774 1775 1788
6264 17 1773 1786 1785 1795
6265 17 1772 1773 1774 1787
6266 17 1772 1773 1786 1796
6267 17 1768 1755 1756 1769
6268 17 1766 1750 1751 1767
6269 17 1765 1749 1750 1766
6270 17 1764 1752 1751 1767
6271 17 1763 1754 1755 1768
6272 17 1762 1757 1756 1769
6273 17 1760 1762 1763 1770
6274 17 1758 1757 1756 1769
6275 17 1757 1756 1755 1768
6276 17 1757 1762 1763 1770
6277 17 1755 1754 1763 1770
6278 17 1754 1755 1756 1769
6279 17 1753 1752 1751 1767
6280 17 1753 1752 1764 1771
6281 17 1753 1754 1755 1768
6282 17 1753 1754 1763 1770
6283 17 1752 1751 1750 1766
6284 17 1751 1752 1764 1771
6285 17 1749 1750 1751 1767
6286 17 1749 1765 1764 1771
6287 17 1747 1749 1750 1766
6288 17 1746 1765 1764 1771
6289 17 1739 1724 1725 1740
6290 4 1736 1721 1722 1737
6291 4 1736 1721 1722 1738
6292 4 1735 1721 1722 1737
6293 4 1735 1721 1722 1738
6294 1 1734 1720 1721 1735
6295 1 1734 1720 1721 1736
6296 17 1731 1717 1716 1733
6297 17 1731 1712 1713 1732
6298 9 1730 1728 1729 1742
6299 2 1730 1723 1722 1737
6300 2 1730 1723 1722 1738
6301 17 1730 1723 1724 1739
6302 17 1729 1728 1730 1743
6303 17 1728 1726 1725 1740
6304 9 1728 1726 1727 1741
6305 17 1727 1726 1725 1740
6306 17 1726 1725 1724 1739
6307 9 1726 1728 1729 1742
6308 17 1726 1728 1730 1743
6309 9 1725 1726 1727 1741
6310 2 1724 1723 1722 1737
6311 2 1724 1723 1722 1738
6312 17 1724 1723 1730 1743
6313 4 1723 1722 1721 1735
6314 4 1723 1722 1721 1736
6315 17 1723 1724 1725 1740
6316 1 1722 1721 1720 1734
6317 17 1722 1723 1724 1739
6318 17 1722 1723 1730 1743
6319 4 1720 1721 1722 1737
6320 4 1720 1721 1722 1738
6321 15 1719 1718 1720 1734
6322 16 1719 1718 1720 1734
6323 17 1718 1717 1716 1733
6324 17 1718 1717 1731 1744
6325 2 1718 1720 1721 1735
6326 2 1718 1720 1721 1736
6327 16 1717 1718 1720 1734
6328 17 1716 1714 1713 1732
6329 17 1716 1717 1731 1744
6330 17 1715 1714 1713 1732
6331 17 1715 1714 1716 1733
6332 17 1713 1712 1731 1744
6333 17 1713 1714 1716 1733
6334 17 1711 1712 1713 1732
6335 17 1711 1712 1731 1744
6336 17 1707 1694 1695 1708
6337 17 1705 1689 1690 1706
6338 17 1704 1688 1689 1705
6339 17 1703 1691 1690 1706
6340 17 1702 1693 1694 1707
6341 17 1701 1696 1695 1708
6342 17 1699 1701 1702 1709
6343 17 1697 1696 1695 1708
6344 17 1696 1695 1694 1707
6345 17 1696 1701 1702 1709
6346 17 1694 1693 1702 1709
6347 17 1693 1694 1695 1708
6348 17 1692 1691 1690 1706
6349 17 1692 1691 1703 1710
6350 17 1692 1693 1694 1707
6351 17 1692 1693 1702 1709
6352 17 1691 1690 1689 1705
6353 17 1690 1691 1703 1710
6354 17 1688 1689 1690 1706
6355 17 1688 1704 1703 1710
6356 17 1686 1688 1689 1705
6357 17 1685 1704 1703 1710
6358 17 1682 1674 1675 1683
6359 17 1680 1672 1673 1681
6360 17 1678 1668 1669 1679
6361 17 1676 1663 1664 1677
6362 17 1675 1662 1663 1676
6363 17 1674 1665 1664 1677
6364 17 1673 1667 1668 1678
6365 17 1672 1670 1669 1679
6366 17 1671 1670 1669 1679
6367 17 1671 1670 1672 1680
6368 17 1670 1669 1668 1678
6369 17 1670 1672 1673 1681
6370 17 1669 1670 1672 1680
6371 17 1668 1667 1673 1681
6372 17 1667 1668 1669 1679
6373 17 1667 1673 1672 1680
6374 17 1666 1665 1664 1677
6375 17 1666 1665 1674 1682
6376 17 1666 1667 1668 1678
6377 17 1666 1667 1673 1681
6378 17 1665 1664 1663 1676
6379 17 1665 1674 1675 1683
6380 17 1664 1665 1674 1682
6381 17 1663 1662 1675 1683
6382 17 1662 1663 1664 1677
6383 17 1662 1675 1674 1682
6384 17 1661 1662 1663 1676
6385 17 1661 1662 1675 1683
6386 17 1657 1644 1645 1658
6387 17 1655 1639 1640 1656
6388 17 1654 1638 1639 1655
6389 17 1653 1641 1640 1656
6390 17 1652 1643 1644 1657
6391 17 1651 1646 1645 1658
6392 17 1649 1651 1652 1659
6393 17 1647 1646 1645 1658
6394 17 1646 1645 1644 1657
6395 17 1646 1651 1652 1659
6396 17 1644 1643 1652 1659
6397 17 1643 1644 1645 1658
6398 17 1642 1641 1640 1656
6399 17 1642 1641 1653 1660
6400 17 1642 1643 1644 1657
6401 17 1642 1643 1652 1659
6402 17 1641 1640 1639 1655
6403 17 1640 1641 1653 1660
6404 17 1638 1639 1640 1656
6405 17 1638 1654 1653 1660
6406 17 1636 1638 1639 1655
6407 17 1635 1654 1653 1660
6408 17 1632 1624 1625 1633
6409 17 1630 1622 1623 1631
6410 17 1628 1618 1619 1629
6411 17 1626 1613 1614 1627
6412 17 1625 1612 1613 1626
6413 17 1624 1615 1614 1627
6414 17 1623 1617 1618 1628
6415 17 1622 1620 1619 1629
6416 17 1621 1620 1619 1629
6417 17 1621 1620 1622 1630
6418 17 1620 1619 1618 1628
6419 17 1620 1622 1623 1631
6420 17 1619 1620 1622 1630
6421 17 1618 1617 1623 1631
6422 17 1617 1618 1619 1629
6423 17 1617 1623 1622 1630
6424 17 1616 1615 1614 1627
6425 17 1616 1615 1624 1632
6426 17 1616 1617 1618 1628
6427 17 1616 1617 1623 1631
6428 17 1615 1614 1613 1626
6429 17 1615 1624 1625 1633
6430 17 1614 1615 1624 1632
6431 17 1613 1612 1625 1633
6432 17 1612 1613 1614 1627
6433 17 1612 1625 1624 1632
6434 17 1611 1612 1613 1626
6435 17 1611 1612 1625 1633
6436 17 1607 1594 1595 1608
6437 17 1605 1589 1590 1606
6438 17 1604 1588 1589 1605
6439 17 1603 1591 1590 1606
6440 17 1602 1593 1594 1607
6441 17 1601 1596 1595 1608
6442 17 1599 1601 1602 1609
6443 17 1597 1596 1595 1608
6444 17 1596 1595 1594 1607
6445 17 1596 1601 1602 1609
6446 17 1594 1593 1602 1609
6447 17 1593 1594 1595 1608
6448 17 1592 1591 1590 1606
6449 17 1592 1591 1603 1610
6450 17 1592 1593 1594 1607
6451 17 1592 1593 1602 1609
6452 17 1591 1590 1589 1605
6453 17 1590 1591 1603 1610
6454 17 1588 1589 1590 1606
6455 17 1588 1604 1603 1610
6456 17 1586 1588 1589 1605
6457 17 1585 1604 1603 1610
6458 17 1582 1574 1575 1583
6459 17 1580 1572 1573 1581
6460 17 1578 1568 1569 1579
6461 17 1576 1563 1564 1577
6462 17 1575 1562 1563 1576
6463 17 1574 1565 1564 1577
6464 17 1573 1567 1568 1578
6465 17 1572 1570 1569 1579
6466 17 1571 1570 1569 1579
6467 17 1571 1570 1572 1580
6468 17 1570 1569 1568 1578
6469 17 1570 1572 1573 1581
6470 17 1569 1570 1572 1580
6471 17 1568 1567 1573 1581
6472 17 1567 1568 1569 1579
6473 17 1567 1573 1572 1580
6474 17 1566 1565 1564 1577
6475 17 1566 1565 1574 1582
6476 17 1566 1567 1568 1578
6477 17 1566 1567 1573 1581
6478 17 1565 1564 1563 1576
6479 17 1565 1574 1575 1583
6480 17 1564 1565 1574 1582
6481 17 1563 1562 1575 1583
6482 17 1562 1563 1564 1577
6483 17 1562 1575 1574 1582
6484 17 1561 1562 1563 1576
6485 17 1561 1562 1575 1583
6486 17 1557 1544 1545 1558
6487 17 1555 1539 1540 1556
6488 17 1554 1538 1539 1555
6489 17 1553 1541 1540 1556
6490 17 1552 1543 1544 1557
6491 17 1551 1546 1545 1558
6492 17 1549 1551 1552 1559
6493 17 1547 1546 1545 1558
6494 17 1546 1545 1544 1557
6495 17 1546 1551 1552 1559
6496 17 1544 1543 1552 1559
6497 17 1543 1544 1545 1558
6498 17 1542 1541 1540 1556
6499 17 1542 1541 1553 1560
6500 17 1542 1543 1544 1557
6501 17 1542 1543 1552 1559
6502 17 1541 1540 1539 1555
6503 17 1540 1541 1553 1560
6504 17 1538 1539 1540 1556
6505 17 1538 1554 1553 1560
6506 17 1536 1538 1539 1555
6507 17 1535 1554 1553 1560
6508 17 1532 1524 1525 1533
6509 17 1530 1522 1523 1531
6510 17 1528 1518 1519 1529
6511 17 1526 1513 1514 1527
6512 17 1525 1512 1513 1526
6513 17 1524 1515 1514 1527
6514 17 1523 1517 1518 1528
6515 17 1522 1520 1519 1529
6516 17 1521 1520 1519 1529
6517 17 1521 1520 1522 1530
6518 17 1520 1519 1518 1528
6519 17 1520 1522 1523 1531
6520 17 1519 1520 1522 1530
6521 17 1518 1517 1523 1531
6522 17 1517 1518 1519 1529
6523 17 1517 1523 1522 1530
6524 17 1516 1515 1514 1527
6525 17 1516 1515 1524 1532
6526 17 1516 1517 1518 1528
6527 17 1516 1517 1523 1531
6528 17 1515 1514 1513 1526
6529 17 1515 1524 1525 1533
6530 17 1514 1515 1524 1532
6531 17 1513 1512 1525 1533
6532 17 1512 1513 1514 1527
6533 17 1512 1525 1524 1532
6534 17 1511 1512 1513 1526
6535 17 1511 1512 1525 1533
6536 17 1507 1494 1495 1508
6537 17 1505 1489 1490 1506
6538 17 1504 1488 1489 1505
6539 17 1503 1491 1490 1506
6540 17 1502 1493 1494 1507
6541 17 1501 1496 1495 1508
6542 17 1499 1501 1502 1509
6543 17 1497 1496 1495 1508
6544 17 1496 1495 1494 1507
6545 17 1496 1501 1502 1509
6546 17 1494 1493 1502 1509
6547 17 1493 1494 1495 1508
6548 17 1492 1491 1490 1506
6549 17 1492 1491 1503 1510
6550 17 1492 1493 1494 1507
6551 17 1492 1493 1502 1509
6552 17 1491 1490 1489 1505
6553 17 1490 1491 1503 1510
6554 17 1488 1489 1490 1506
6555 17 1488 1504 1503 1510
6556 17 1486 1488 1489 1505
6557 17 1485 1504 1503 1510
6558 17 1482 1474 1475 1483
6559 17 1480 1472 1473 1481
6560 17 1478 1468 1469 1479
6561 17 1476 1463 1464 1477
6562 17 1475 1462 1463 1476
6563 17 1474 1465 1464 1477
6564 17 1473 1467 1468 1478
6565 17 1472 1470 1469 1479
6566 17 1471 1470 1469 1479
6567 17 1471 1470 1472 1480
6568 17 1470 1469 1468 1478
6569 17 1470 1472 1473 1481
6570 17 1469 1470 1472 1480
6571 17 1468 1467 1473 1481
6572 17 1467 1468 1469 1479
6573 17 1467 1473 1472 1480
6574 17 1466 1465 1464 1477
6575 17 1466 1465 1474 1482
6576 17 1466 1467 1468 1478
6577 17 1466 1467 1473 1481
6578 17 1465 1464 1463 1476
6579 17 1465 1474 1475 1483
6580 17 1464 1465 1474 1482
6581 17 1463 1462 1475 1483
6582 17 1462 1463 1464 1477
6583 17 1462 1475 1474 1482
6584 17 1461 1462 1463 1476
6585 17 1461 1462 1475 1483
6586 17 1457 1444 1445 1458
6587 17 1455 1439 1440 1456
6588 17 1454 1438 1439 1455
6589 17 1453 1441 1440 1456
6590 17 1452 1443 1444 1457
6591 17 1451 1446 1445 1458
6592 17 1449 1451 1452 1459
6593 17 1447 1446 1445 1458
6594 17 1446 1445 1444 1457
6595 17 1446 1451 1452 1459
6596 17 1444 1443 1452 1459
6597 17 1443 1444 1445 1458
6598 17 1442 1441 1440 1456
6599 17 1442 1441 1453 1460
6600 17 1442 1443 1444 1457
6601 17 1442 1443 1452 1459
6602 17 1441 1440 1439 1455
6603 17 1440 1441 1453 1460
6604 17 1438 1439 1440 1456
6605 17 1438 1454 1453 1460
6606 17 1436 1438 1439 1455
6607 17 1435 1454 1453 1460
6608 17 1428 1413 1414 1429
6609 4 1425 1410 1411 1426
6610 4 1425 1410 1411 1427
6611 4 1424 1410 1411 1426
6612 4 1424 1410 1411 1427
6613 1 1423 1409 1410 1424
6614 1 1423 1409 1410 1425
6615 17 1420 1406 1405 1422
6616 17 1420 1401 1402 1421
6617 9 1419 1417 1418 1431
6618 2 1419 1412 1411 1426
6619 2 1419 1412 1411 1427
6620 17 1419 1412 1413 1428
6621 17 1418 1417 1419 1432
6622 17 1417 1415 1414 1429
6623 9 1417 1415 1416 1430
6624 17 1416 1415 1414 1429
6625 17 1415 1414 1413 1428
6626 9 1415 1417 1418 1431
6627 17 1415 1417 1419 1432
6628 9 1414 1415 1416 1430
6629 2 1413 1412 1411 1426
6630 2 1413 1412 1411 1427
6631 17 1413 1412 1419 1432
6632 4 1412 1411 1410 1424
6633 4 1412 1411 1410 1425
6634 17 1412 1413 1414 1429
6635 1 1411 1410 1409 1423
6636 17 1411 1412 1413 1428
6637 17 1411 1412 1419 1432
6638 4 1409 1410 1411 1426
6639 4 1409 1410 1411 1427
6640 15 1408 1407 1409 1423
6641 16 1408 1407 1409 1423
6642 17 1407 1406 1405 1422
6643 17 1407 1406 1420 1433
6644 2 1407 1409 1410 1424
6645 2 1407 1409 1410 1425
6646 16 1406 1407 1409 1423
6647 17 1405 1403 1402 1421
6648 17 1405 1406 1420 1433
6649 17 1404 1403 1402 1421
6650 17 1404 1403 1405 1422
6651 17 1402 1401 1420 1433
6652 17 1402 1403 1405 1422
6653 17 1400 1401 1402 1421
6654 17 1400 1401 1420 1433
6655 17 1396 1383 1384 1397
6656 17 1394 1378 1379 1395
6657 17 1393 1377 1378 1394
6658 17 1392 1380 1379 1395
6659 17 1391 1382 1383 1396
6660 17 1390 1385 1384 1397
6661 17 1388 1390 1391 1398
6662 17 1386 1385 1384 1397
6663 17 1385 1384 1383 1396
6664 17 1385 1390 1391 1398
6665 17 1383 1382 1391 1398
6666 17 1382 1383 1384 1397
6667 17 1381 1380 1379 1395
6668 17 1381 1380 1392 1399
6669 17 1381 1382 1383 1396
6670 17 1381 1382 1391 1398
6671 17 1380 1379 1378 1394
6672 17 1379 1380 1392 1399
6673 17 1377 1378 1379 1395
6674 17 1377 1393 1392 1399
6675 17 1375 1377 1378 1394
6676 17 1374 1393 1392 1399
6677 17 1371 1361 1362 1372
6678 17 1369 1359 1360 1370
6679 17 1367 1355 1356 1368
6680 17 1365 1350 1351 1366
6681 14 1362 1349 1348 1363
6682 14 1362 1349 1348 1364
6683 17 1362 1349 1350 1365
6684 17 1361 1352 1351 1366
6685 17 1360 1354 1355 1367
6686 17 1359 1357 1356 1368
6687 17 1358 1357 1356 1368
6688 17 1358 1357 1359 1369
6689 17 1357 1356 1355 1367
6690 17 1357 1359 1360 1370
6691 17 1356 1357 1359 1369
6692 17 1355 1354 1360 1370
6693 17 1354 1355 1356 1368
6694 17 1354 1360 1359 1369
6695 17 1353 1352 1351 1366
6696 17 1353 1352 1361 1371
6697 17 1353 1354 1355 1367
6698 17 1353 1354 1360 1370
6699 17 1352 1351 1350 1365
6700 17 1352 1361 1362 1372
6701 17 1351 1352 1361 1371
6702 14 1350 1349 1348 1363
6703 14 1350 1349 1348 1364
6704 17 1350 1349 1362 1372
6705 17 1349 1350 1351 1366
6706 17 1349 1362 1361 1371
6707 17 1348 1349 1350 1365
6708 17 1348 1349 1362 1372
6709 17 2244 2234 2235 2245
6710 17 2242 2232 2233 2243
6711 17 2238 2228 2229 2239
6712 17 2236 2223 2224 2237
6713 17 2235 2222 2223 2236
6714 17 2234 2225 2224 2237
6715 17 2233 2227 2228 2238
6716 17 2232 2230 2229 2239
6717 14 2232 2230 2231 2240
6718 14 2232 2230 2231 2241
6719 17 2231 2230 2229 2239
6720 17 2231 2230 2232 2242
6721 17 2230 2229 2228 2238
6722 17 2230 2232 2233 2243
6723 14 2229 2230 2231 2240
6724 14 2229 2230 2231 2241
6725 17 2229 2230 2232 2242
6726 17 2228 2227 2233 2243
6727 17 2227 2228 2229 2239
6728 17 2227 2233 2232 2242
6729 17 2226 2225 2224 2237
6730 17 2226 2225 2234 2244
6731 17 2226 2227 2228 2238
6732 17 2226 2227 2233 2243
6733 17 2225 2224 2223 2236
6734 17 2225 2234 2235 2245
6735 17 2224 2225 2234 2244
6736 17 2223 2222 2235 2245
6737 17 2222 2223 2224 2237
6738 17 2222 2235 2234 2244
6739 17 2221 2222 2223 2236
6740 17 2221 2222 2235 2245
6741 17 2217 2204 2205 2218
6742 17 2215 2199 2200 2216
6743 17 2214 2198 2199 2215
6744 17 2213 2201 2200 2216
6745 17 2212 2203 2204 2217
6746 17 2211 2206 2205 2218
6747 17 2209 2211 2212 2219
6748 17 2207 2206 2205 2218
6749 17 2206 2205 2204 2217
6750 17 2206 2211 2212 2219
6751 17 2204 2203 2212 2219
6752 17 2203 2204 2205 2218
6753 17 2202 2201 2200 2216
6754 17 2202 2201 2213 2220
6755 17 2202 2203 2204 2217
6756 17 2202 2203 2212 2219
6757 17 2201 2200 2199 2215
6758 17 2200 2201 2213 2220
6759 17 2198 2199 2200 2216
6760 17 2198 2214 2213 2220
6761 17 2196 2198 2199 2215
6762 17 2195 2214 2213 2220
6763 17 2188 2173 2174 2189
6764 4 2185 2170 2171 2186
6765 4 2185 2170 2171 2187
6766 4 2184 2170 2171 2186
6767 4 2184 2170 2171 2187
6768 1 2183 2169 2170 2184
6769 1 2183 2169 2170 2185
6770 17 2180 2166 2165 2182
6771 17 2180 2161 2162 2181
6772 9 2179 2177 2178 2191
6773 2 2179 2172 2171 2186
6774 2 2179 2172 2171 2187
6775 17 2179 2172 2173 2188
6776 17 2178 2177 2179 2192
6777 17 2177 2175 2174 2189
6778 9 2177 2175 2176 2190
6779 17 2176 2175 2174 2189
6780 17 2175 2174 2173 2188
6781 9 2175 2177 2178 2191
6782 17 2175 2177 2179 2192
6783 9 2174 2175 2176 2190
6784 2 2173 2172 2171 2186
6785 2 2173 2172 2171 2187
6786 17 2173 2172 2179 2192
6787 4 2172 2171 2170 2184
6788 4 2172 2171 2170 2185
6789 17 2172 2173 2174 2189
6790 1 2171 2170 2169 2183
6791 17 2171 2172 2173 2188
6792 17 2171 2172 2179 2192
6793 4 2169 2170 2171 2186
6794 4 2169 2170 2171 2187
6795 15 2168 2167 2169 2183
6796 16 2168 2167 2169 2183
6797 17 2167 2166 2165 2182
6798 17 2167 2166 2180 2193
6799 2 2167 2169 2170 2184
6800 2 2167 2169 2170 2185
6801 16 2166 2167 2169 2183
6802 17 2165 2163 2162 2181
6803 17 2165 2166 2180 2193
6804 17 2164 2163 2162 2181
6805 17 2164 2163 2165 2182
6806 17 2162 2161 2180 2193
6807 17 2162 2163 2165 2182
6808 17 2160 2161 2162 2181
6809 17 2160 2161 2180 2193
6810 17 2156 2143 2144 2157
6811 17 2154 2138 2139 2155
6812 17 2153 2137 2138 2154
6813 17 2152 2140 2139 2155
6814 17 2151 2142 2143 2156
6815 17 2150 2145 2144 2157
6816 17 2148 2150 2151 2158
6817 17 2146 2145 2144 2157
6818 17 2145 2144 2143 2156
6819 17 2145 2150 2151 2158
6820 17 2143 2142 2151 2158
6821 17 2142 2143 2144 2157
6822 17 2141 2140 2139 2155
6823 17 2141 2140 2152 2159
6824 17 2141 2142 2143 2156
6825 17 2141 2142 2151 2158
6826 17 2140 2139 2138 2154
6827 17 2139 2140 2152 2159
6828 17 2137 2138 2139 2155
6829 17 2137 2153 2152 2159
6830 17 2135 2137 2138 2154
6831 17 2134 2153 2152 2159
6832 17 2131 2123 2124 2132
6833 17 2129 2121 2122 2130
6834 17 2127 2117 2118 2128
6835 17 2125 2112 2113 2126
6836 17 2124 2111 2112 2125
6837 17 2123 2114 2113 2126
6838 17 2122 2116 2117 2127
6839 17 2121 2119 2118 2128
6840 17 2120 2119 2118 2128
6841 17 2120 2119 2121 2129
6842 17 2119 2118 2117 2127
6843 17 2119 2121 2122 2130
6844 17 2118 2119 2121 2129
6845 17 2117 2116 2122 2130
6846 17 2116 2117 2118 2128
6847 17 2116 2122 2121 2129
6848 17 2115 2114 2113 2126
6849 17 2115 2114 2123 2131
6850 17 2115 2116 2117 2127
6851 17 2115 2116 2122 2130
6852 17 2114 2113 2112 2125
6853 17 2114 2123 2124 2132
6854 17 2113 2114 2123 2131
6855 17 2112 2111 2124 2132
6856 17 2111 2112 2113 2126
6857 17 2111 2124 2123 2131
6858 17 2110 2111 2112 2125
6859 17 2110 2111 2124 2132
6860 17 2106 2093 2094 2107
6861 17 2104 2088 2089 2105
6862 17 2103 2087 2088 2104
6863 17 2102 2090 2089 2105
6864 17 2101 2092 2093 2106
6865 17 2100 2095 2094 2107
6866 17 2098 2100 2101 2108
6867 17 2096 2095 2094 2107
6868 17 2095 2094 2093 2106
6869 17 2095 2100 2101 2108
6870 17 2093 2092 2101 2108
6871 17 2092 2093 2094 2107
6872 17 2091 2090 2089 2105
6873 17 2091 2090 2102 2109
6874 17 2091 2092 2093 2106
6875 17 2091 2092 2101 2108
6876 17 2090 2089 2088 2104
6877 17 2089 2090 2102 2109
6878 17 2087 2088 2089 2105
6879 17 2087 2103 2102 2109
6880 17 2085 2087 2088 2104
6881 17 2084 2103 2102 2109
6882 17 2081 2073 2074 2082
6883 17 2079 2071 2072 2080
6884 17 2077 2067 2068 2078
6885 17 2075 2062 2063 2076
6886 17 2074 2061 2062 2075
6887 17 2073 2064 2063 2076
6888 17 2072 2066 2067 2077
6889 17 2071 2069 2068 2078
6890 17 2070 2069 2068 2078
6891 17 2070 2069 2071 2079
6892 17 2069 2068 2067 2077
6893 17 2069 2071 2072 2080
6894 17 2068 2069 2071 2079
6895 17 2067 2066 2072 2080
6896 17 2066 2067 2068 2078
6897 17 2066 2072 2071 2079
6898 17 2065 2064 2063 2076
6899 17 2065 2064 2073 2081
6900 17 2065 2066 2067 2077
6901 17 2065 2066 2072 2080
6902 17 2064 2063 2062 2075
6903 17 2064 2073 2074 2082
6904 17 2063 2064 2073 2081
6905 17 2062 2061 2074 2082
6906 17 2061 2062 2063 2076
6907 17 2061 2074 2073 2081
6908 17 2060 2061 2062 2075
6909 17 2060 2061 2074 2082
6910 17 2056 2043 2044 2057
6911 17 2054 2038 2039 2055
6912 17 2053 2037 2038 2054
6913 17 2052 2040 2039 2055
6914 17 2051 2042 2043 2056
6915 17 2050 2045 2044 2057
6916 17 2048 2050 2051 2058
6917 17 2046 2045 2044 2057
6918 17 2045 2044 2043 2056
6919 17 2045 2050 2051 2058
6920 17 2043 2042 2051 2058
6921 17 2042 2043 2044 2057
6922 17 2041 2040 2039 2055
6923 17 2041 2040 2052 2059
6924 17 2041 2042 2043 2056
6925 17 2041 2042 2051 2058
6926 17 2040 2039 2038 2054
6927 17 2039 2040 2052 2059
6928 17 2037 2038 2039 2055
6929 17 2037 2053 2052 2059
6930 17 2035 2037 2038 2054
6931 17 2034 2053 2052 2059
6932 17 2031 2023 2024 2032
6933 17 2029 2021 2022 2030
6934 17 2027 2017 2018 2028
6935 17 2025 2012 2013 2026
6936 17 2024 2011 2012 2025
6937 17 2023 2014 2013 2026
6938 17 2022 2016 2017 2027
6939 17 2021 2019 2018 2028
6940 17 2020 2019 2018 2028
6941 17 2020 2019 2021 2029
6942 17 2019 2018 2017 2027
6943 17 2019 2021 2022 2030
6944 17 2018 2019 2021 2029
6945 17 2017 2016 2022 2030
6946 17 2016 2017 2018 2028
6947 17 2016 2022 2021 2029
6948 17 2015 2014 2013 2026
6949 17 2015 2014 2023 2031
6950 17 2015 2016 2017 2027
6951 17 2015 2016 2022 2030
6952 17 2014 2013 2012 2025
6953 17 2014 2023 2024 2032
6954 17 2013 2014 2023 2031
6955 17 2012 2011 2024 2032
6956 17 2011 2012 2013 2026
6957 17 2011 2024 2023 2031
6958 17 2010 2011 2012 2025
6959 17 2010 2011 2024 2032
6960 17 2006 1993 1994 2007
6961 17 2004 1988 1989 2005
6962 17 2003 1987 1988 2004
6963 17 2002 1990 1989 2005
6964 17 2001 1992 1993 2006
6965 17 2000 1995 1994 2007
6966 17 1998 2000 2001 2008
6967 17 1996 1995 1994 2007
6968 17 1995 1994 1993 2006
6969 17 1995 2000 2001 2008
6970 17 1993 1992 2001 2008
6971 17 1992 1993 1994 2007
6972 17 1991 1990 1989 2005
6973 17 1991 1990 2002 2009
6974 17 1991 1992 1993 2006
6975 17 1991 1992 2001 2008
6976 17 1990 1989 1988 2004
6977 17 1989 1990 2002 2009
6978 17 1987 1988 1989 2005
6979 17 1987 2003 2002 2009
6980 17 1985 1987 1988 2004
6981 17 1984 2003 2002 2009
6982 17 1981 1973 1974 1982
6983 17 1979 1971 1972 1980
6984 17 1977 1967 1968 1978
6985 17 1975 1962 1963 1976
6986 17 1974 1961 1962 1975
6987 17 1973 1964 1963 1976
6988 17 1972 1966 1967 1977
6989 17 1971 1969 1968 1978
6990 17 1970 1969 1968 1978
6991 17 1970 1969 1971 1979
6992 17 1969 1968 1967 1977
6993 17 1969 1971 1972 1980
6994 17 1968 1969 1971 1979
6995 17 1967 1966 1972 1980
6996 17 1966 1967 1968 1978
6997 17 1966 1972 1971 1979
6998 17 1965 1964 1963 1976
6999 17 1965 1964 1973 1981
7000 17 1965 1966 1967 1977
7001 17 1965 1966 1972 1980
7002 17 1964 1963 1962 1975
7003 17 1964 1973 1974 1982
7004 17 1963 1964 1973 1981
7005 17 1962 1961 1974 1982
7006 17 1961 1962 1963 1976
7007 17 1961 1974 1973 1981
7008 17 1960 1961 1962 1975
7009 17 1960 1961 1974 1982
7010 17 1956 1943 1944 1957
7011 17 1954 1938 1939 1955
7012 17 1953 1937 1938 1954
7013 17 1952 1940 1939 1955
7014 17 1951 1942 1943 1956
7015 17 1950 1945 1944 1957
7016 17 1948 1950 1951 1958
7017 17 1946 1945 1944 1957
7018 17 1945 1944 1943 1956
7019 17 1945 1950 1951 1958
7020 17 1943 1942 1951 1958
7021 17 1942 1943 1944 1957
7022 17 1941 1940 1939 1955
7023 17 1941 1940 1952 1959
7024 17 1941 1942 1943 1956
7025 17 1941 1942 1951 1958
7026 17 1940 1939 1938 1954
7027 17 1939 1940 1952 1959
7028 17 1937 1938 1939 1955
7029 17 1937 1953 1952 1959
7030 17 1935 1937 1938 1954
7031 17 1934 1953 1952 1959
7032 17 1931 1923 1924 1932
7033 17 1929 1921 1922 1930
7034 17 1927 1917 1918 1928
7035 17 1925 1912 1913 1926
7036 17 1924 1911 1912 1925
7037 17 1923 1914 1913 1926
7038 17 1922 1916 1917 1927
7039 17 1921 1919 1918 1928
7040 17 1920 1919 1918 1928
7041 17 1920 1919 1921 1929
7042 17 1919 1918 1917 1927
7043 17 1919 1921 1922 1930
7044 17 1918 1919 1921 1929
7045 17 1917 1916 1922 1930
7046 17 1916 1917 1918 1928
7047 17 1916 1922 1921 1929
7048 17 1915 1914 1913 1926
7049 17 1915 1914 1923 1931
7050 17 1915 1916 1917 1927
7051 17 1915 1916 1922 1930
7052 17 1914 1913 1912 1925
7053 17 1914 1923 1924 1932
7054 17 1913 1914 1923 1931
7055 17 1912 1911 1924 1932
7056 17 1911 1912 1913 1926
7057 17 1911 1924 1923 1931
7058 17 1910 1911 1912 1925
7059 17 1910 1911 1924 1932
7060 17 1906 1893 1894 1907
7061 17 1904 1888 1889 1905
7062 17 1903 1887 1888 1904
7063 17 1902 1890 1889 1905
7064 17 1901 1892 1893 1906
7065 17 1900 1895 1894 1907
7066 17 1898 1900 1901 1908
7067 17 1896 1895 1894 1907
7068 17 1895 1894 1893 1906
7069 17 1895 1900 1901 1908
7070 17 1893 1892 1901 1908
7071 17 1892 1893 1894 1907
7072 17 1891 1890 1889 1905
7073 17 1891 1890 1902 1909
7074 17 1891 1892 1893 1906
7075 17 1891 1892 1901 1908
7076 17 1890 1889 1888 1904
7077 17 1889 1890 1902 1909
7078 17 1887 1888 1889 1905
7079 17 1887 1903 1902 1909
7080 17 1885 1887 1888 1904
7081 17 1884 1903 1902 1909
7082 17 1877 1862 1863 1878
7083 4 1874 1859 1860 1875
7084 4 1874 1859 1860 1876
7085 4 1873 1859 1860 1875
7086 4 1873 1859 1860 1876
7087 1 1872 1858 1859 1873
7088 1 1872 1858 1859 1874
7089 17 1869 1855 1854 1871
7090 17 1869 1850 1851 1870
7091 9 1868 1866 1867 1880
7092 2 1868 1861 1860 1875
7093 2 1868 1861 1860 1876
7094 17 1868 1861 1862 1877
7095 17 1867 1866 1868 1881
7096 17 1866 1864 1863 1878
7097 9 1866 1864 1865 1879
7098 17 1865 1864 1863 1878
7099 17 1864 1863 1862 1877
7100 9 1864 1866 1867 1880
7101 17 1864 1866 1868 1881
7102 9 1863 1864 1865 1879
7103 2 1862 1861 1860 1875
7104 2 1862 1861 1860 1876
7105 17 1862 1861 1868 1881
7106 4 1861 1860 1859 1873
7107 4 1861 1860 1859 1874
7108 17 1861 1862 1863 1878
7109 1 1860 1859 1858 1872
7110 17 1860 1861 1862 1877
7111 17 1860 1861 1868 1881
7112 4 1858 1859 1860 1875
7113 4 1858 1859 1860 1876
7114 15 1857 1856 1858 1872
7115 16 1857 1856 1858 1872
7116 17 1856 1855 1854 1871
7117 17 1856 1855 1869 1882
7118 2 1856 1858 1859 1873
7119 2 1856 1858 1859 1874
7120 16 1855 1856 1858 1872
7121 17 1854 1852 1851 1870
7122 17 1854 1855 1869 1882
7123 17 1853 1852 1851 1870
7124 17 1853 1852 1854 1871
7125 17 1851 1850 1869 1882
7126 17 1851 1852 1854 1871
7127 17 1849 1850 1851 1870
7128 17 1849 1850 1869 1882
7129 17 1845 1832 1833 1846
7130 17 1843 1827 1828 1844
7131 17 1842 1826 1827 1843
7132 17 1841 1829 1828 1844
7133 17 1840 1831 1832 1845
7134 17 1839 1834 1833 1846
7135 17 1837 1839 1840 1847
7136 17 1835 1834 1833 1846
7137 17 1834 1833 1832 1845
7138 17 1834 1839 1840 1847
7139 17 1832 1831 1840 1847
7140 17 1831 1832 1833 1846
7141 17 1830 1829 1828 1844
7142 17 1830 1829 1841 1848
7143 17 1830 1831 1832 1845
7144 17 1830 1831 1840 1847
7145 17 1829 1828 1827 1843
7146 17 1828 1829 1841 1848
7147 17 1826 1827 1828 1844
7148 17 1826 1842 1841 1848
7149 17 1824 1826 1827 1843
7150 17 1823 1842 1841 1848
7151 17 1820 1810 1811 1821
7152 17 1818 1808 1809 1819
7153 17 1816 1804 1805 1817
7154 17 1814 1799 1800 1815
7155 14 1811 1798 1797 1812
7156 14 1811 1798 1797 1813
7157 17 1811 1798 1799 1814
7158 17 1810 1801 1800 1815
7159 17 1809 1803 1804 1816
7160 17 1808 1806 1805 1817
7161 17 1807 1806 1805 1817
7162 17 1807 1806 1808 1818
7163 17 1806 1805 1804 1816
7164 17 1806 1808 1809 1819
7165 17 1805 1806 1808 1818
7166 17 1804 1803 1809 1819
7167 17 1803 1804 1805 1817
7168 17 1803 1809 1808 1818
7169 17 1802 1801 1800 1815
7170 17 1802 1801 1810 1820
7171 17 1802 1803 1804 1816
7172 17 1802 1803 1809 1819
7173 17 1801 1800 1799 1814
7174 17 1801 1810 1811 1821
7175 17 1800 1801 1810 1820
7176 14 1799 1798 1797 1812
7177 14 1799 1798 1797 1813
7178 17 1799 1798 1811 1821
7179 17 1798 1799 1800 1815
7180 17 1798 1811 1810 1820
7181 17 1797 1798 1799 1814
7182 17 1797 1798 1811 1821
7183 17 2693 2683 2684 2694
7184 17 2691 2681 2682 2692
7185 17 2687 2677 2678 2688
7186 17 2685 2672 2673 2686
7187 17 2684 2671 2672 2685
7188 17 2683 2674 2673 2686
7189 17 2682 2676 2677 2687
7190 17 2681 2679 2678 2688
7191 14 2681 2679 2680 2689
7192 14 2681 2679 2680 2690
7193 17 2680 2679 2678 2688
7194 17 2680 2679 2681 2691
7195 17 2679 2678 2677 2687
7196 17 2679 2681 2682 2692
7197 14 2678 2679 2680 2689
7198 14 2678 2679 2680 2690
7199 17 2678 2679 2681 2691
7200 17 2677 2676 2682 2692
7201 17 2676 2677 2678 2688
7202 17 2676 2682 2681 2691
7203 17 2675 2674 2673 2686
7204 17 2675 2674 2683 2693
7205 17 2675 2676 2677 2687
7206 17 2675 2676 2682 2692
7207 17 2674 2673 2672 2685
7208 17 2674 2683 2684 2694
7209 17 2673 2674 2683 2693
7210 17 2672 2671 2684 2694
7211 17 2671 2672 2673 2686
7212 17 2671 2684 2683 2693
7213 17 2670 2671 2672 2685
7214 17 2670 2671 2684 2694
7215 17 2666 2653 2654 2667
7216 17 2664 2648 2649 2665
7217 17 2663 2647 2648 2664
7218 17 2662 2650 2649 2665
7219 17 2661 2652 2653 2666
7220 17 2660 2655 2654 2667
7221 17 2658 2660 2661 2668
7222 17 2656 2655 2654 2667
7223 17 2655 2654 2653 2666
7224 17 2655 2660 2661 2668
7225 17 2653 2652 2661 2668
7226 17 2652 2653 2654 2667
7227 17 2651 2650 2649 2665
7228 17 2651 2650 2662 2669
7229 17 2651 2652 2653 2666
7230 17 2651 2652 2661 2668
7231 17 2650 2649 2648 2664
7232 17 2649 2650 2662 2669
7233 17 2647 2648 2649 2665
7234 17 2647 2663 2662 2669
7235 17 2645 2647 2648 2664
7236 17 2644 2663 2662 2669
7237 17 2637 2622 2623 2638
7238 4 2634 2619 2620 2635
7239 4 2634 2619 2620 2636
7240 4 2633 2619 2620 2635
7241 4 2633 2619 2620 2636
7242 1 2632 2618 2619 2633
7243 1 2632 2618 2619 2634
7244 17 2629 2615 2614 2631
7245 17 2629 2610 2611 2630
7246 9 2628 2626 2627 2640
7247 2 2628 2621 2620 2635
7248 2 2628 2621 2620 2636
7249 17 2628 2621 2622 2637
7250 17 2627 2626 2628 2641
7251 17 2626 2624 2623 2638
7252 9 2626 2624 2625 2639
7253 17 2625 2624 2623 2638
7254 17 2624 2623 2622 2637
7255 9 2624 2626 2627 2640
7256 17 2624 2626 2628 2641
7257 9 2623 2624 2625 2639
7258 2 2622 2621 2620 2635
7259 2 2622 2621 2620 2636
7260 17 2622 2621 2628 2641
7261 4 2621 2620 2619 2633
7262 4 2621 2620 2619 2634
7263 17 2621 2622 2623 2638
7264 1 2620 2619 2618 2632
7265 17 2620 2621 2622 2637
7266 17 2620 2621 2628 2641
7267 4 2618 2619 2620 2635
7268 4 2618 2619 2620 2636
7269 15 2617 2616 2618 2632
7270 16 2617 2616 2618 2632
7271 17 2616 2615 2614 2631
7272 17 2616 2615 2629 2642
7273 2 2616 2618 2619 2633
7274 2 2616 2618 2619 2634
7275 16 2615 2616 2618 2632
7276 17 2614 2612 2611 2630
7277 17 2614 2615 2629 2642
7278 17 2613 2612 2611 2630
7279 17 2613 2612 2614 2631
7280 17 2611 2610 2629 2642
7281 17 2611 2612 2614 2631
7282 17 2609 2610 2611 2630
7283 17 2609 2610 2629 2642
7284 17 2605 2592 2593 2606
7285 17 2603 2587 2588 2604
7286 17 2602 2586 2587 2603
7287 17 2601 2589 2588 2604
7288 17 2600 2591 2592 2605
7289 17 2599 2594 2593 2606
7290 17 2597 2599 2600 2607
7291 17 2595 2594 2593 2606
7292 17 2594 2593 2592 2605
7293 17 2594 2599 2600 2607
7294 17 2592 2591 2600 2607
7295 17 2591 2592 2593 2606
7296 17 2590 2589 2588 2604
7297 17 2590 2589 2601 2608
7298 17 2590 2591 2592 2605
7299 17 2590 2591 2600 2607
7300 17 2589 2588 2587 2603
7301 17 2588 2589 2601 2608
7302 17 2586 2587 2588 2604
7303 17 2586 2602 2601 2608
7304 17 2584 2586 2587 2603
7305 17 2583 2602 2601 2608
7306 17 2580 2572 2573 2581
7307 17 2578 2570 2571 2579
7308 17 2576 2566 2567 2577
7309 17 2574 2561 2562 2575
7310 17 2573 2560 2561 2574
7311 17 2572 2563 2562 2575
7312 17 2571 2565 2566 2576
7313 17 2570 2568 2567 2577
7314 17 2569 2568 2567 2577
7315 17 2569 2568 2570 2578
7316 17 2568 2567 2566 2576
7317 17 2568 2570 2571 2579
7318 17 2567 2568 2570 2578
7319 17 2566 2565 2571 2579
7320 17 2565 2566 2567 2577
7321 17 2565 2571 2570 2578
7322 17 2564 2563 2562 2575
7323 17 2564 2563 2572 2580
7324 17 2564 2565 2566 2576
7325 17 2564 2565 2571 2579
7326 17 2563 2562 2561 2574
7327 17 2563 2572 2573 2581
7328 17 2562 2563 2572 2580
7329 17 2561 2560 2573 2581
7330 17 2560 2561 2562 2575
7331 17 2560 2573 2572 2580
7332 17 2559 2560 2561 2574
7333 17 2559 2560 2573 2581
7334 17 2555 2542 2543 2556
7335 17 2553 2537 2538 2554
7336 17 2552 2536 2537 2553
7337 17 2551 2539 2538 2554
7338 17 2550 2541 2542 2555
7339 17 2549 2544 2543 2556
7340 17 2547 2549 2550 2557
7341 17 2545 2544 2543 2556
7342 17 2544 2543 2542 2555
7343 17 2544 2549 2550 2557
7344 17 2542 2541 2550 2557
7345 17 2541 2542 2543 2556
7346 17 2540 2539 2538 2554
7347 17 2540 2539 2551 2558
7348 17 2540 2541 2542 2555
7349 17 2540 2541 2550 2557
7350 17 2539 2538 2537 2553
7351 17 2538 2539 2551 2558
7352 17 2536 2537 2538 2554
7353 17 2536 2552 2551 2558
7354 17 2534 2536 2537 2553
7355 17 2533 2552 2551 2558
7356 17 2530 2522 2523 2531
7357 17 2528 2520 2521 2529
7358 17 2526 2516 2517 2527
7359 17 2524 2511 2512 2525
7360 17 2523 2510 2511 2524
7361 17 2522 2513 2512 2525
7362 17 2521 2515 2516 2526
7363 17 2520 2518 2517 2527
7364 17 2519 2518 2517 2527
7365 17 2519 2518 2520 2528
7366 17 2518 2517 2516 2526
7367 17 2518 2520 2521 2529
7368 17 2517 2518 2520 2528
7369 17 2516 2515 2521 2529
7370 17 2515 2516 2517 2527
7371 17 2515 2521 2520 2528
7372 17 2514 2513 2512 2525
7373 17 2514 2513 2522 2530
7374 17 2514 2515 2516 2526
7375 17 2514 2515 2521 2529
7376 17 2513 2512 2511 2524
7377 17 2513 2522 2523 2531
7378 17 2512 2513 2522 2530
7379 17 2511 2510 2523 2531
7380 17 2510 2511 2512 2525
7381 17 2510 2523 2522 2530
7382 17 2509 2510 2511 2524
7383 17 2509 2510 2523 2531
7384 17 2505 2492 2493 2506
7385 17 2503 2487 2488 2504
7386 17 2502 2486 2487 2503
7387 17 2501 2489 2488 2504
7388 17 2500 2491 2492 2505
7389 17 2499 2494 2493 2506
7390 17 2497 2499 2500 2507
7391 17 2495 2494 2493 2506
7392 17 2494 2493 2492 2505
7393 17 2494 2499 2500 2507
7394 17 2492 2491 2500 2507
7395 17 2491 2492 2493 2506
7396 17 2490 2489 2488 2504
7397 17 2490 2489 2501 2508
7398 17 2490 2491 2492 2505
7399 17 2490 2491 2500 2507
7400 17 2489 2488 2487 2503
7401 17 2488 2489 2501 2508
7402 17 2486 2487 2488 2504
7403 17 2486 2502 2501 2508
7404 17 2484 2486 2487 2503
7405 17 2483 2502 2501 2508
7406 17 2480 2472 2473 2481
7407 17 2478 2470 2471 2479
7408 17 2476 2466 2467 2477
7409 17 2474 2461 2462 2475
7410 17 2473 2460 2461 2474
7411 17 2472 2463 2462 2475
7412 17 2471 2465 2466 2476
7413 17 2470 2468 2467 2477
7414 17 2469 2468 2467 2477
7415 17 2469 2468 2470 2478
7416 17 2468 2467 2466 2476
7417 17 2468 2470 2471 2479
7418 17 2467 2468 2470 2478
7419 17 2466 2465 2471 2479
7420 17 2465 2466 2467 2477
7421 17 2465 2471 2470 2478
7422 17 2464 2463 2462 2475
7423 17 2464 2463 2472 2480
7424 17 2464 2465 2466 2476
7425 17 2464 2465 2471 2479
7426 17 2463 2462 2461 2474
7427 17 2463 2472 2473 2481
7428 17 2462 2463 2472 2480
7429 17 2461 2460 2473 2481
7430 17 2460 2461 2462 2475
7431 17 2460 2473 2472 2480
7432 17 2459 2460 2461 2474
7433 17 2459 2460 2473 2481
7434 17 2455 2442 2443 2456
7435 17 2453 2437 2438 2454
7436 17 2452 2436 2437 2453
7437 17 2451 2439 2438 2454
7438 17 2450 2441 2442 2455
7439 17 2449 2444 2443 2456
7440 17 2447 2449 2450 2457
7441 17 2445 2444 2443 2456
7442 17 2444 2443 2442 2455
7443 17 2444 2449 2450 2457
7444 17 2442 2441 2450 2457
7445 17 2441 2442 2443 2456
7446 17 2440 2439 2438 2454
7447 17 2440 2439 2451 2458
7448 17 2440 2441 2442 2455
7449 17 2440 2441 2450 2457
7450 17 2439 2438 2437 2453
7451 17 2438 2439 2451 2458
7452 17 2436 2437 2438 2454
7453 17 2436 2452 2451 2458
7454 17 2434 2436 2437 2453
7455 17 2433 2452 2451 2458
7456 17 2430 2422 2423 2431
7457 17 2428 2420 2421 2429
7458 17 2426 2416 2417 2427
7459 17 2424 2411 2412 2425
7460 17 2423 2410 2411 2424
7461 17 2422 2413 2412 2425
7462 17 2421 2415 2416 2426
7463 17 2420 2418 2417 2427
7464 17 2419 2418 2417 2427
7465 17 2419 2418 2420 2428
7466 17 2418 2417 2416 2426
7467 17 2418 2420 2421 2429
7468 17 2417 2418 2420 2428
7469 17 2416 2415 2421 2429
7470 17 2415 2416 2417 2427
7471 17 2415 2421 2420 2428
7472 17 2414 2413 2412 2425
7473 17 2414 2413 2422 2430
7474 17 2414 2415 2416 2426
7475 17 2414 2415 2421 2429
7476 17 2413 2412 2411 2424
7477 17 2413 2422 2423 2431
7478 17 2412 2413 2422 2430
7479 17 2411 2410 2423 2431
7480 17 2410 2411 2412 2425
7481 17 2410 2423 2422 2430
7482 17 2409 2410 2411 2424
7483 17 2409 2410 2423 2431
7484 17 2405 2392 2393 2406
7485 17 2403 2387 2388 2404
7486 17 2402 2386 2387 2403
7487 17 2401 2389 2388 2404
7488 17 2400 2391 2392 2405
7489 17 2399 2394 2393 2406
7490 17 2397 2399 2400 2407
7491 17 2395 2394 2393 2406
7492 17 2394 2393 2392 2405
7493 17 2394 2399 2400 2407
7494 17 2392 2391 2400 2407
7495 17 2391 2392 2393 2406
7496 17 2390 2389 2388 2404
7497 17 2390 2389 2401 2408
7498 17 2390 2391 2392 2405
7499 17 2390 2391 2400 2407
7500 17 2389 2388 2387 2403
7501 17 2388 2389 2401 2408
7502 17 2386 2387 2388 2404
7503 17 2386 2402 2401 2408
7504 17 2384 2386 2387 2403
7505 17 2383 2402 2401 2408
7506 17 2380 2372 2373 2381
7507 17 2378 2370 2371 2379
7508 17 2376 2366 2367 2377
7509 17 2374 2361 2362 2375
7510 17 2373 2360 2361 2374
7511 17 2372 2363 2362 2375
7512 17 2371 2365 2366 2376
7513 17 2370 2368 2367 2377
7514 17 2369 2368 2367 2377
7515 17 2369 2368 2370 2378
7516 17 2368 2367 2366 2376
7517 17 2368 2370 2371 2379
7518 17 2367 2368 2370 2378
7519 17 2366 2365 2371 2379
7520 17 2365 2366 2367 2377
7521 17 2365 2371 2370 2378
7522 17 2364 2363 2362 2375
7523 17 2364 2363 2372 2380
7524 17 2364 2365 2366 2376
7525 17 2364 2365 2371 2379
7526 17 2363 2362 2361 2374
7527 17 2363 2372 2373 2381
7528 17 2362 2363 2372 2380
7529 17 2361 2360 2373 2381
7530 17 2360 2361 2362 2375
7531 17 2360 2373 2372 2380
7532 17 2359 2360 2361 2374
7533 17 2359 2360 2373 2381
7534 17 2355 2342 2343 2356
7535 17 2353 2337 2338 2354
7536 17 2352 2336 2337 2353
7537 17 2351 2339 2338 2354
7538 17 2350 2341 2342 2355
7539 17 2349 2344 2343 2356
7540 17 2347 2349 2350 2357
7541 17 2345 2344 2343 2356
7542 17 2344 2343 2342 2355
7543 17 2344 2349 2350 2357
7544 17 2342 2341 2350 2357
7545 17 2341 2342 2343 2356
7546 17 2340 2339 2338 2354
7547 17 2340 2339 2351 2358
7548 17 2340 2341 2342 2355
7549 17 2340 2341 2350 2357
7550 17 2339 2338 2337 2353
7551 17 2338 2339 2351 2358
7552 17 2336 2337 2338 2354
7553 17 2336 2352 2351 2358
7554 17 2334 2336 2337 2353
7555 17 2333 2352 2351 2358
7556 17 2326 2311 2312 2327
7557 4 2323 2308 2309 2324
7558 4 2323 2308 2309 2325
7559 4 2322 2308 2309 2324
7560 4 2322 2308 2309 2325
7561 1 2321 2307 2308 2322
7562 1 2321 2307 2308 2323
7563 17 2318 2304 2303 2320
7564 17 2318 2299 2300 2319
7565 9 2317 2315 2316 2329
7566 2 2317 2310 2309 2324
7567 2 2317 2310 2309 2325
7568 17 2317 2310 2311 2326
7569 17 2316 2315 2317 2330
7570 17 2315 2313 2312 2327
7571 9 2315 2313 2314 2328
7572 17 2314 2313 2312 2327
7573 17 2313 2312 2311 2326
7574 9 2313 2315 2316 2329
7575 17 2313 2315 2317 2330
7576 9 2312 2313 2314 2328
7577 2 2311 2310 2309 2324
7578 2 2311 2310 2309 2325
7579 17 2311 2310 2317 2330
7580 4 2310 2309 2308 2322
7581 4 2310 2309 2308 2323
7582 17 2310 2311 2312 2327
7583 1 2309 2308 2307 2321
7584 17 2309 2310 2311 2326
7585 17 2309 2310 2317 2330
7586 4 2307 2308 2309 2324
7587 4 2307 2308 2309 2325
7588 15 2306 2305 2307 2321
7589 16 2306 2305 2307 2321
7590 17 2305 2304 2303 2320
7591 17 2305 2304 2318 2331
7592 2 2305 2307 2308 2322
7593 2 2305 2307 2308 2323
7594 16 2304 2305 2307 2321
7595 17 2303 2301 2300 2319
7596 17 2303 2304 2318 2331
7597 17 2302 2301 2300 2319
7598 17 2302 2301 2303 2320
7599 17 2300 2299 2318 2331
7600 17 2300 2301 2303 2320
7601 17 2298 2299 2300 2319
7602 17 2298 2299 2318 2331
7603 17 2294 2281 2282 2295
7604 17 2292 2276 2277 2293
7605 17 2291 2275 2276 2292
7606 17 2290 2278 2277 2293
7607 17 2289 2280 2281 2294
7608 17 2288 2283 2282 2295
7609 17 2286 2288 2289 2296
7610 17 2284 2283 2282 2295
7611 17 2283 2282 2281 2294
7612 17 2283 2288 2289 2296
7613 17 2281 2280 2289 2296
7614 17 2280 2281 2282 2295
7615 17 2279 2278 2277 2293
7616 17 2279 2278 2290 2297
7617 17 2279 2280 2281 2294
7618 17 2279 2280 2289 2296
7619 17 2278 2277 2276 2292
7620 17 2277 2278 2290 2297
7621 17 2275 2276 2277 2293
7622 17 2275 2291 2290 2297
7623 17 2273 2275 2276 2292
7624 17 2272 2291 2290 2297
7625 17 2269 2259 2260 2270
7626 17 2267 2257 2258 2268
7627 17 2265 2253 2254 2266
7628 17 2263 2248 2249 2264
7629 14 2260 2247 2246 2261
7630 14 2260 2247 2246 2262
7631 17 2260 2247 2248 2263
7632 17 2259 2250 2249 2264
7633 17 2258 2252 2253 2265
7634 17 2257 2255 2254 2266
7635 17 2256 2255 2254 2266
7636 17 2256 2255 2257 2267
7637 17 2255 2254 2253 2265
7638 17 2255 2257 2258 2268
7639 17 2254 2255 2257 2267
7640 17 2253 2252 2258 2268
7641 17 2252 2253 2254 2266
7642 17 2252 2258 2257 2267
7643 17 2251 2250 2249 2264
7644 17 2251 2250 2259 2269
7645 17 2251 2252 2253 2265
7646 17 2251 2252 2258 2268
7647 17 2250 2249 2248 2263
7648 17 2250 2259 2260 2270
7649 17 2249 2250 2259 2269
7650 14 2248 2247 2246 2261
7651 14 2248 2247 2246 2262
7652 17 2248 2247 2260 2270
7653 17 2247 2248 2249 2264
7654 17 2247 2260 2259 2269
7655 17 2246 2247 2248 2263
7656 17 2246 2247 2260 2270

Impropers

1 1 433 436 434 435
2 1 432 437 431 430
3 1 428 438 429 430
4 1 427 439 426 425
5 1 411 413 425 426
6 1 399 402 418 417
7 1 413 410 415 416
8 2 415 425 413 414
9 2 410 425 411 412
10 1 411 409 410 415
11 1 408 416 407 406
12 1 404 417 405 406
13 1 400 403 402 418
14 2 402 368 400 401
15 2 418 368 399 398
16 1 379 383 381 382
17 1 378 381 379 380
18 1 377 383 376 375
19 2 370 373 371 372
20 1 371 369 370 384
21 1 399 400 368 367
22 1 366 369 367 368
23 1 366 384 365 364
24 1 350 352 364 365
25 1 338 341 357 356
26 1 352 349 354 355
27 2 354 364 352 353
28 2 349 364 350 351
29 1 350 348 349 354
30 1 347 355 346 345
31 1 343 356 344 345
32 1 339 342 341 357
33 2 341 324 339 340
34 2 357 324 338 337
35 1 338 339 324 323
36 1 322 325 323 324
37 1 321 326 320 319
38 1 317 327 318 319
39 1 316 328 315 314
40 1 300 302 314 315
41 1 288 291 307 306
42 1 302 299 304 305
43 2 304 314 302 303
44 2 299 314 300 301
45 1 300 298 299 304
46 1 297 305 296 295
47 1 293 306 294 295
48 1 289 292 291 307
49 2 291 274 289 290
50 2 307 274 288 287
51 1 288 289 274 273
52 1 272 275 273 274
53 1 271 276 270 269
54 1 267 277 268 269
55 1 266 278 265 264
56 1 250 252 264 265
57 1 238 241 257 256
58 1 252 249 254 255
59 2 254 264 252 253
60 2 249 264 250 251
61 1 250 248 249 254
62 1 247 255 246 245
63 1 243 256 244 245
64 1 239 242 241 257
65 2 241 224 239 240
66 2 257 224 238 237
67 1 238 239 224 223
68 1 222 225 223 224
69 1 221 226 220 219
70 1 217 227 218 219
71 1 216 228 215 214
72 1 200 202 214 215
73 1 188 191 207 206
74 1 202 199 204 205
75 2 204 214 202 203
76 2 199 214 200 201
77 1 200 198 199 204
78 1 197 205 196 195
79 1 193 206 194 195
80 1 189 192 191 207
81 2 191 174 189 190
82 2 207 174 188 187
83 1 188 189 174 173
84 1 172 175 173 174
85 1 171 176 170 169
86 1 167 177 168 169
87 1 166 178 165 164
88 1 150 152 164 165
89 1 138 141 157 156
90 1 152 149 154 155
91 2 154 164 152 153
92 2 149 164 150 151
93 1 150 148 149 154
94 1 147 155 146 145
95 1 143 156 144 145
96 1 139 142 141 157
97 2 141 124 139 140
98 2 157 124 138 137
99 1 138 139 124 123
100 1 122 125 123 124
101 1 121 126 120 119
102 1 117 127 118 119
103 1 116 128 115 114
104 1 100 102 114 115
105 1 88 91 107 106
106 1 102 99 104 105
107 2 104 114 102 103
108 2 99 114 100 101
109 1 100 98 99 104
110 1 97 105 96 95
111 1 93 106 94 95
112 1 89 92 91 107
113 2 91 57 89 90
114 2 107 57 88 87
115 1 68 72 70 71
116 1 67 70 68 69
117 1 64 66 65 72
118 2 59 62 60 61
119 1 60 58 59 73
120 1 88 89 57 56
121 1 55 58 56 57
122 1 55 73 54 53
123 1 39 41 53 54
124 1 27 30 46 45
125 1 41 38 43 44
126 2 43 53 41 42
127 2 38 53 39 40
128 1 39 37 38 43
129 1 36 44 35 34
130 1 32 45 33 34
131 1 28 31 30 46
132 2 30 11 28 29
133 2 46 11 27 26
134 1 27 28 11 10
135 1 9 12 10 11
136 1 8 13 7 6
137 1 4 14 5 6
138 1 1 2 15 3
139 1 882 885 883 884
140 1 881 886 880 879
141 1 877 887 878 879
142 1 876 888 875 874
143 1 860 862 874 875
144 1 848 851 867 866
145 1 862 859 864 865
146 2 864 874 862 863
147 2 859 874 860 861
148 1 860 858 859 864
149 1 857 865 856 855
150 1 853 866 854 855
151 1 849 852 851 867
152 2 851 817 849 850
153 2 867 817 848 847
154 1 828 832 830 831
155 1 827 830 828 829
156 1 824 826 825 832
157 2 819 822 820 821
158 1 820 818 819 833
159 1 848 849 817 816
160 1 815 818 816 817
161 1 815 833 814 813
162 1 799 801 813 814
163 1 787 790 806 805
164 1 801 798 803 804
165 2 803 813 801 802
166 2 798 813 799 800
167 1 799 797 798 803
168 1 796 804 795 794
169 1 792 805 793 794
170 1 788 791 790 806
171 2 790 773 788 789
172 2 806 773 787 786
173 1 787 788 773 772
174 1 771 774 772 773
175 1 770 775 769 768
176 1 766 776 767 768
177 1 765 777 764 763
178 1 749 751 763 764
179 1 737 740 756 755
180 1 751 748 753 754
181 2 753 763 751 752
182 2 748 763 749 750
183 1 749 747 748 753
184 1 746 754 745 744
185 1 742 755 743 744
186 1 738 741 740 756
187 2 740 723 738 739
188 2 756 723 737 736
189 1 737 738 723 722
190 1 721 724 722 723
191 1 720 725 719 718
192 1 716 726 717 718
193 1 715 727 714 713
194 1 699 701 713 714
195 1 687 690 706 705
196 1 701 698 703 704
197 2 703 713 701 702
198 2 698 713 699 700
199 1 699 697 698 703
200 1 696 704 695 694
201 1 692 705 693 694
202 1 688 691 690 706
203 2 690 673 688 689
204 2 706 673 687 686
205 1 687 688 673 672
206 1 671 674 672 673
207 1 670 675 669 668
208 1 666 676 667 668
209 1 665 677 664 663
210 1 649 651 663 664
211 1 637 640 656 655
212 1 651 648 653 654
213 2 653 663 651 652
214 2 648 663 649 650
215 1 649 647 648 653
216 1 646 654 645 644
217 1 642 655 643 644
218 1 638 641 640 656
219 2 640 623 638 639
220 2 656 623 637 636
221 1 637 638 623 622
222 1 621 624 622 623
223 1 620 625 619 618
224 1 616 626 617 618
225 1 615 627 614 613
226 1 599 601 613 614
227 1 587 590 606 605
228 1 601 598 603 604
229 2 603 613 601 602
230 2 598 613 599 600
231 1 599 597 598 603
232 1 596 604 595 594
233 1 592 605 593 594
234 1 588 591 590 606
235 2 590 573 588 589
236 2 606 573 587 586
237 1 587 588 573 572
238 1 571 574 572 573
239 1 570 575 569 568
240 1 566 576 567 568
241 1 565 577 564 563
242 1 549 551 563 564
243 1 537 540 556 555
244 1 551 548 553 554
245 2 553 563 551 552
246 2 548 563 549 550
247 1 549 547 548 553
248 1 546 554 545 544
249 1 542 555 543 544
250 1 538 541 540 556
251 2 540 506 538 539
252 2 556 506 537 536
253 1 517 521 519 520
254 1 516 519 517 518
255 1 513 515 514 521
256 2 508 511 509 510
257 1 509 507 508 522
258 1 537 538 506 505
259 1 504 507 505 506
260 1 504 522 503 502
261 1 488 490 502 503
262 1 476 479 495 494
263 1 490 487 492 493
264 2 492 502 490 491
265 2 487 502 488 489
266 1 488 486 487 492
267 1 485 493 484 483
268 1 481 494 482 483
269 1 477 480 479 495
270 2 479 460 477 478
271 2 495 460 476 475
272 1 476 477 460 459
273 1 458 461 459 460
274 1 457 462 456 455
275 1 453 463 454 455
276 1 452 464 451 450
277 1 1331 1334 1332 1333
278 1 1330 1335 1329 1328
279 1 1326 1336 1327 1328
280 1 1325 1337 1324 1323
281 1 1309 1311 1323 1324
282 1 1297 1300 1316 1315
283 1 1311 1308 1313 1314
284 2 1313 1323 1311 1312
285 2 1308 1323 1309 1310
286 1 1309 1307 1308 1313
287 1 1306 1314 1305 1304
288 1 1302 1315 1303 1304
289 1 1298 1301 1300 1316
290 2 1300 1266 1298 1299
291 2 1316 1266 1297 1296
292 1 1277 1281 1279 1280
293 1 1276 1279 1277 1278
294 1 1273 1275 1274 1281
295 2 1268 1271 1269 1270
296 1 1269 1267 1268 1282
297 1 1297 1298 1266 1265
298 1 1264 1267 1265 1266
299 1 1264 1282 1263 1262
300 1 1248 1250 1262 1263
301 1 1236 1239 1255 1254
302 1 1250 1247 1252 1253
303 2 1252 1262 1250 1251
304 2 1247 1262 1248 1249
305 1 1248 1246 1247 1252
306 1 1245 1253 1244 1243
307 1 1241 1254 1242 1243
308 1 1237 1240 1239 1255
309 2 1239 1222 1237 1238
310 2 1255 1222 1236 1235
311 1 1236 1237 1222 1221
312 1 1220 1223 1221 1222
313 1 1219 1224 1218 1217
314 1 1215 1225 1216 1217
315 1 1214 1226 1213 1212
316 1 1198 1200 1212 1213
317 1 1186 1189 1205 1204
318 1 1200 1197 1202 1203
319 2 1202 1212 1200 1201
320 2 1197 1212 1198 1199
321 1 1198 1196 1197 1202
322 1 1195 1203 1194 1193
323 1 1191 1204 1192 1193
324 1 1187 1190 1189 1205
325 2 1189 1172 1187 1188
326 2 1205 1172 1186 1185
327 1 1186 1187 1172 1171
328 1 1170 1173 1171 1172
329 1 1169 1174 1168 1167
330 1 1165 1175 1166 1167
331 1 1164 1176 1163 1162
332 1 1148 1150 1162 1163
333 1 1136 1139 1155 1154
334 1 1150 1147 1152 1153
335 2 1152 1162 1150 1151
336 2 1147 1162 1148 1149
337 1 1148 1146 1147 1152
338 1 1145 1153 1144 1143
339 1 1141 1154 1142 1143
340 1 1137 1140 1139 1155
341 2 1139 1122 1137 1138
342 2 1155 1122 1136 1135
343 1 1136 1137 1122 1121
344 1 1120 1123 1121 1122
345 1 1119 1124 1118 1117
346 1 1115 1125 1116 1117
347 1 1114 1126 1113 1112
348 1 1098 1100 1112 1113
349 1 1086 1089 1105 1104
350 1 1100 1097 1102 1103
351 2 1102 1112 1100 1101
352 2 1097 1112 1098 1099
353 1 1098 1096 1097 1102
354 1 1095 1103 1094 1093
355 1 1091 1104 1092 1093
356 1 1087 1090 1089 1105
357 2 1089 1072 1087 1088
358 2 1105 1072 1086 1085
359 1 1086 1087 1072 1071
360 1 1070 1073 1071 1072
361 1 1069 1074 1068 1067
362 1 1065 1075 1066 1067
363 1 1064 1076 1063 1062
364 1 1048 1050 1062 1063
365 1 1036 1039 1055 1054
366 1 1050 1047 1052 1053
367 2 1052 1062 1050 1051
368 2 1047 1062 1048 1049
369 1 1048 1046 1047 1052
370 1 1045 1053 1044 1043
371 1 1041 1054 1042 1043
372 1 1037 1040 1039 1055
373 2 1039 1022 1037 1038
374 2 1055 1022 1036 1035
375 1 1036 1037 1022 1021
376 1 1020 1023 1021 1022
377 1 1019 1024 1018 1017
378 1 1015 1025 1016 1017
379 1 1014 1026 1013 1012
380 1 998 1000 1012 1013
381 1 986 989 1005 1004
382 1 1000 997 1002 1003
383 2 1002 1012 1000 1001
384 2 997 1012 998 999
385 1 998 996 997 1002
386 1 995 1003 994 993
387 1 991 1004 992 993
388 1 987 990 989 1005
389 2 989 955 987 988
390 2 1005 955 986 985
391 1 966 970 968 969
392 1 965 968 966 967
393 1 962 964 963 970
394 2 957 960 958 959
395 1 958 956 957 971
396 1 986 987 955 954
397 1 953 956 954 955
398 1 953 971 952 951
399 1 937 939 951 952
400 1 925 928 944 943
401 1 939 936 941 942
402 2 941 951 939 940
403 2 936 951 937 938
404 1 937 935 936 941
405 1 934 942 933 932
406 1 930 943 931 932
407 1 926 929 928 944
408 2 928 909 926 927
409 2 944 909 925 924
410 1 925 926 909 908
411 1 907 910 908 909
412 1 906 911 905 904
413 1 902 912 903 904
414 1 901 913 900 899
415 1 1780 1783 1781 1782
416 1 1779 1784 1778 1777
417 1 1775 1785 1776 1777
418 1 1774 1786 1773 1772
419 1 1758 1760 1772 1773
420 1 1746 1749 1765 1764
421 1 1760 1757 1762 1763
422 2 1762 1772 1760 1761
423 2 1757 1772 1758 1759
424 1 1758 1756 1757 1762
425 1 1755 1763 1754 1753
426 1 1751 1764 1752 1753
427 1 1747 1750 1749 1765
428 2 1749 1715 1747 1748
429 2 1765 1715 1746 1745
430 1 1726 1730 1728 1729
431 1 1725 1728 1726 1727
432 1 1722 1724 1723 1730
433 2 1717 1720 1718 1719
434 1 1718 1716 1717 1731
435 1 1746 1747 1715 1714
436 1 1713 1716 1714 1715
437 1 1713 1731 1712 1711
438 1 1697 1699 1711 1712
439 1 1685 1688 1704 1703
440 1 1699 1696 1701 1702
441 2 1701 1711 1699 1700
442 2 1696 1711 1697 1698
443 1 1697 1695 1696 1701
444 1 1694 1702 1693 1692
445 1 1690 1703 1691 1692
446 1 1686 1689 1688 1704
447 2 1688 1671 1686 1687
448 2 1704 1671 1685 1684
449 1 1685 1686 1671 1670
450 1 1669 1672 1670 1671
451 1 1668 1673 1667 1666
452 1 1664 1674 1665 1666
453 1 1663 1675 1662 1661
454 1 1647 1649 1661 1662
455 1 1635 1638 1654 1653
456 1 1649 1646 1651 1652
457 2 1651 1661 1649 1650
458 2 1646 1661 1647 1648
459 1 1647 1645 1646 1651
460 1 1644 1652 1643 1642
461 1 1640 1653 1641 1642
462 1 1636 1639 1638 1654
463 2 1638 1621 1636 1637
464 2 1654 1621 1635 1634
465 1 1635 1636 1621 1620
466 1 1619 1622 1620 1621
467 1 1618 1623 1617 1616
468 1 1614 1624 1615 1616
469 1 1613 1625 1612 1611
470 1 1597 1599 1611 1612
471 1 1585 1588 1604 1603
472 1 1599 1596 1601 1602
473 2 1601 1611 1599 1600
474 2 1596 1611 1597 1598
475 1 1597 1595 1596 1601
476 1 1594 1602 1593 1592
477 1 1590 1603 1591 1592
478 1 1586 1589 1588 1604
479 2 1588 1571 1586 1587
480 2 1604 1571 1585 1584
481 1 1585 1586 1571 1570
482 1 1569 1572 1570 1571
483 1 1568 1573 1567 1566
484 1 1564 1574 1565 1566
485 1 1563 1575 1562 1561
486 1 1547 1549 1561 1562
487 1 1535 1538 1554 1553
488 1 1549 1546 1551 1552
489 2 1551 1561 1549 1550
490 2 1546 1561 1547 1548
491 1 1547 1545 1546 1551
492 1 1544 1552 1543 1542
493 1 1540 1553 1541 1542
494 1 1536 1539 1538 1554
495 2 1538 1521 1536 1537
496 2 1554 1521 1535 1534
497 1 1535 1536 1521 1520
498 1 1519 1522 1520 1521
499 1 1518 1523 1517 1516
500 1 1514 1524 1515 1516
501 1 1513 1525 1512 1511
502 1 1497 1499 1511 1512
503 1 1485 1488 1504 1503
504 1 1499 1496 1501 1502
505 2 1501 1511 1499 1500
506 2 1496 1511 1497 1498
507 1 1497 1495 1496 1501
508 1 1494 1502 1493 1492
509 1 1490 1503 1491 1492
510 1 1486 1489 1488 1504
511 2 1488 1471 1486 1487
512 2 1504 1471 1485 1484
513 1 1485 1486 1471 1470
514 1 1469 1472 1470 1471
515 1 1468 1473 1467 1466
516 1 1464 1474 1465 1466
517 1 1463 1475 1462 1461
518 1 1447 1449 1461 1462
519 1 1435 1438 1454 1453
520 1 1449 1446 1451 1452
521 2 1451 1461 1449 1450
522 2 1446 1461 1447 1448
523 1 1447 1445 1446 1451
524 1 1444 1452 1443 1442
525 1 1440 1453 1441 1442
526 1 1436 1439 1438 1454
527 2 1438 1404 1436 1437
528 2 1454 1404 1435 1434
529 1 1415 1419 1417 1418
530 1 1414 1417 1415 1416
531 1 1411 1413 1412 1419
532 2 1406 1409 1407 1408
533 1 1407 1405 1406 1420
534 1 1435 1436 1404 1403
535 1 1402 1405 1403 1404
536 1 1402 1420 1401 1400
537 1 1386 1388 1400 1401
538 1 1374 1377 1393 1392
539 1 1388 1385 1390 1391
540 2 1390 1400 1388 1389
541 2 1385 1400 1386 1387
542 1 1386 1384 1385 1390
543 1 1383 1391 1382 1381
544 1 1379 1392 1380 1381
545 1 1375 1378 1377 1393
546 2 1377 1358 1375 1376
547 2 1393 1358 1374 1373
548 1 1374 1375 1358 1357
549 1 1356 1359 1357 1358
550 1 1355 1360 1354 1353
551 1 1351 1361 1352 1353
552 1 1350 1362 1349 1348
553 1 2229 2232 2230 2231
554 1 2228 2233 2227 2226
555 1 2224 2234 2225 2226
556 1 2223 2235 2222 2221
557 1 2207 2209 2221 2222
558 1 2195 2198 2214 2213
559 1 2209 2206 2211 2212
560 2 2211 2221 2209 2210
561 2 2206 2221 2207 2208
562 1 2207 2205 2206 2211
563 1 2204 2212 2203 2202
564 1 2200 2213 2201 2202
565 1 2196 2199 2198 2214
566 2 2198 2164 2196 2197
567 2 2214 2164 2195 2194
568 1 2175 2179 2177 2178
569 1 2174 2177 2175 2176
570 1 2171 2173 2172 2179
571 2 2166 2169 2167 2168
572 1 2167 2165 2166 2180
573 1 2195 2196 2164 2163
574 1 2162 2165 2163 2164
575 1 2162 2180 2161 2160
576 1 2146 2148 2160 2161
577 1 2134 2137 2153 2152
578 1 2148 2145 2150 2151
579 2 2150 2160 2148 2149
580 2 2145 2160 2146 2147
581 1 2146 2144 2145 2150
582 1 2143 2151 2142 2141
583 1 2139 2152 2140 2141
584 1 2135 2138 2137 2153
585 2 2137 2120 2135 2136
586 2 2153 2120 2134 2133
587 1 2134 2135 2120 2119
588 1 2118 2121 2119 2120
589 1 2117 2122 2116 2115
590 1 2113 2123 2114 2115
591 1 2112 2124 2111 2110
592 1 2096 2098 2110 2111
593 1 2084 2087 2103 2102
594 1 2098 2095 2100 2101
595 2 2100 2110 2098 2099
596 2 2095 2110 2096 2097
597 1 2096 2094 2095 2100
598 1 2093 2101 2092 2091
599 1 2089 2102 2090 2091
600 1 2085 2088 2087 2103
601 2 2087 2070 2085 2086
602 2 2103 2070 2084 2083
603 1 2084 2085 2070 2069
604 1 2068 2071 2069 2070
605 1 2067 2072 2066 2065
606 1 2063 2073 2064 2065
607 1 2062 2074 2061 2060
608 1 2046 2048 2060 2061
609 1 2034 2037 2053 2052
610 1 2048 2045 2050 2051
611 2 2050 2060 2048 2049
612 2 2045 2060 2046 2047
613 1 2046 2044 2045 2050
614 1 2043 2051 2042 2041
615 1 2039 2052 2040 2041
616 1 2035 2038 2037 2053
617 2 2037 2020 2035 2036
618 2 2053 2020 2034 2033
619 1 2034 2035 2020 2019
620 1 2018 2021 2019 2020
621 1 2017 2022 2016 2015
622 1 2013 2023 2014 2015
623 1 2012 2024 2011 2010
624 1 1996 1998 2010 2011
625 1 1984 1987 2003 2002
626 1 1998 1995 2000 2001
627 2 2000 2010 1998 1999
628 2 1995 2010 1996 1997
629 1 1996 1994 1995 2000
630 1 1993 2001 1992 1991
631 1 1989 2002 1990 1991
632 1 1985 1988 1987 2003
633 2 1987 1970 1985 1986
634 2 2003 1970 1984 1983
635 1 1984 1985 1970 1969
636 1 1968 1971 1969 1970
637 1 1967 1972 1966 1965
638 1 1963 1973 1964 1965
639 1 1962 1974 1961 1960
640 1 1946 1948 1960 1961
641 1 1934 1937 1953 1952
642 1 1948 1945 1950 1951
643 2 1950 1960 1948 1949
644 2 1945 1960 1946 1947
645 1 1946 1944 1945 1950
646 1 1943 1951 1942 1941
647 1 1939 1952 1940 1941
648 1 1935 1938 1937 1953
649 2 1937 1920 1935 1936
650 2 1953 1920 1934 1933
651 1 1934 1935 1920 1919
652 1 1918 1921 1919 1920
653 1 1917 1922 1916 1915
654 1 1913 1923 1914 1915
655 1 1912 1924 1911 1910
656 1 1896 1898 1910 1911
657 1 1884 1887 1903 1902
658 1 1898 1895 1900 1901
659 2 1900 1910 1898 1899
660 2 1895 1910 1896 1897
661 1 1896 1894 1895 1900
662 1 1893 1901 1892 1891
663 1 1889 1902 1890 1891
664 1 1885 1888 1887 1903
665 2 1887 1853 1885 1886
666 2 1903 1853 1884 1883
667 1 1864 1868 1866 1867
668 1 1863 1866 1864 1865
669 1 1860 1862 1861 1868
670 2 1855 1858 1856 1857
671 1 1856 1854 1855 1869
672 1 1884 1885 1853 1852
673 1 1851 1854 1852 1853
674 1 1851 1869 1850 1849
675 1 1835 1837 1849 1850
676 1 1823 1826 1842 1841
677 1 1837 1834 1839 1840
678 2 1839 1849 1837 1838
679 2 1834 1849 1835 1836
680 1 1835 1833 1834 1839
681 1 1832 1840 1831 1830
682 1 1828 1841 1829 1830
683 1 1824 1827 1826 1842
684 2 1826 1807 1824 1825
685 2 1842 1807 1823 1822
686 1 1823 1824 1807 1806
687 1 1805 1808 1806 1807
688 1 1804 1809 1803 1802
689 1 1800 1810 1801 1802
690 1 1799 1811 1798 1797
691 1 2678 2681 2679 2680
692 1 2677 2682 2676 2675
693 1 2673 2683 2674 2675
694 1 2672 2684 2671 2670
695 1 2656 2658 2670 2671
696 1 2644 2647 2663 2662
697 1 2658 2655 2660 2661
698 2 2660 2670 2658 2659
699 2 2655 2670 2656 2657
700 1 2656 2654 2655 2660
701 1 2653 2661 2652 2651
702 1 2649 2662 2650 2651
703 1 2645 2648 2647 2663
704 2 2647 2613 2645 2646
705 2 2663 2613 2644 2643
706 1 2624 2628 2626 2627
707 1 2623 2626 2624 2625
708 1 2620 2622 2621 2628
709 2 2615 2618 2616 2617
710 1 2616 2614 2615 2629
711 1 2644 2645 2613 2612
712 1 2611 2614 2612 2613
713 1 2611 2629 2610 2609
714 1 2595 2597 2609 2610
715 1 2583 2586 2602 2601
716 1 2597 2594 2599 2600
717 2 2599 2609 2597 2598
718 2 2594 2609 2595 2596
719 1 2595 2593 2594 2599
720 1 2592 2600 2591 2590
721 1 2588 2601 2589 2590
722 1 2584 2587 2586 2602
723 2 2586 2569 2584 2585
724 2 2602 2569 2583 2582
725 1 2583 2584 2569 2568
726 1 2567 2570 2568 2569
727 1 2566 2571 2565 2564
728 1 2562 2572 2563 2564
729 1 2561 2573 2560 2559
730 1 2545 2547 2559 2560
731 1 2533 2536 2552 2551
732 1 2547 2544 2549 2550
733 2 2549 2559 2547 2548
734 2 2544 2559 2545 2546
735 1 2545 2543 2544 2549
736 1 2542 2550 2541 2540
737 1 2538 2551 2539 2540
738 1 2534 2537 2536 2552
739 2 2536 2519 2534 2535
740 2 2552 2519 2533 2532
741 1 2533 2534 2519 2518
742 1 2517 2520 2518 2519
743 1 2516 2521 2515 2514
744 1 2512 2522 2513 2514
745 1 2511 2523 2510 2509
746 1 2495 2497 2509 2510
747 1 2483 2486 2502 2501
748 1 2497 2494 2499 2500
749 2 2499 2509 2497 2498
750 2 2494 2509 2495 2496
751 1 2495 2493 2494 2499
752 1 2492 2500 2491 2490
753 1 2488 2501 2489 2490
754 1 2484 2487 2486 2502
755 2 2486 2469 2484 2485
756 2 2502 2469 2483 2482
757 1 2483 2484 2469 2468
758 1 2467 2470 2468 2469
759 1 2466 2471 2465 2464
760 1 2462 2472 2463 2464
761 1 2461 2473 2460 2459
762 1 2445 2447 2459 2460
763 1 2433 2436 2452 2451
764 1 2447 2444 2449 2450
765 2 2449 2459 2447 2448
766 2 2444 2459 2445 2446
767 1 2445 2443 2444 2449
768 1 2442 2450 2441 2440
769 1 2438 2451 2439 2440
770 1 2434 2437 2436 2452
771 2 2436 2419 2434 2435
772 2 2452 2419 2433 2432
773 1 2433 2434 2419 2418
774 1 2417 2420 2418 2419
775 1 2416 2421 2415 2414
776 1 2412 2422 2413 2414
777 1 2411 2423 2410 2409
778 1 2395 2397 2409 2410
779 1 2383 2386 2402 2401
780 1 2397 2394 2399 2400
781 2 2399 2409 2397 2398
782 2 2394 2409 2395 2396
783 1 2395 2393 2394 2399
784 1 2392 2400 2391 2390
785 1 2388 2401 2389 2390
786 1 2384 2387 2386 2402
787 2 2386 2369 2384 2385
788 2 2402 2369 2383 2382
789 1 2383 2384 2369 2368
790 1 2367 2370 2368 2369
791 1 2366 2371 2365 2364
792 1 2362 2372 2363 2364
793 1 2361 2373 2360 2359
794 1 2345 2347 2359 2360
795 1 2333 2336 2352 2351
796 1 2347 2344 2349 2350
797 2 2349 2359 2347 2348
798 2 2344 2359 2345 2346
799 1 2345 2343 2344 2349
800 1 2342 2350 2341 2340
801 1 2338 2351 2339 2340
802 1 2334 2337 2336 2352
803 2 2336 2302 2334 2335
804 2 2352 2302 2333 2332
805 1 2313 2317 2315 2316
806 1 2312 2315 2313 2314
807 1 2309 2311 2310 2317
808 2 2304 2307 2305 2306
809 1 2305 2303 2304 2318
810 1 2333 2334 2302 2301
811 1 2300 2303 2301 2302
812 1 2300 2318 2299 2298
813 1 2284 2286 2298 2299
814 1 2272 2275 2291 2290
815 1 2286 2283 2288 2289
816 2 2288 2298 2286 2287
817 2 2283 2298 2284 2285
818 1 2284 2282 2283 2288
819 1 2281 2289 2280 2279
820 1 2277 2290 2278 2279
821 1 2273 2276 2275 2291
822 2 2275 2256 2273 2274
823 2 2291 2256 2272 2271
824 1 2272 2273 2256 2255
825 1 2254 2257 2255 2256
826 1 2253 2258 2252 2251
827 1 2249 2259 2250 2251
828 1 2248 2260 2247 2246
829 1 426 438 439 449
830 1 429 439 438 448
831 1 431 436 437 447
832 1 434 437 436 446
833 1 434 444 435 445
834 1 432 434 433 443
835 1 431 433 432 442
836 1 427 429 428 441
837 1 426 428 427 440
838 1 405 418 417 424
839 1 407 415 416 423
840 1 408 410 409 422
841 1 407 409 408 421
842 1 403 405 404 420
843 1 402 404 403 419
844 1 365 370 384 397
845 1 376 381 383 396
846 1 377 379 378 393
847 1 376 378 377 392
848 1 371 374 373 387
849 1 367 370 369 386
850 1 365 367 366 385
851 1 344 357 356 363
852 1 346 354 355 362
853 1 347 349 348 361
854 1 346 348 347 360
855 1 342 344 343 359
856 1 341 343 342 358
857 1 315 327 328 336
858 1 318 328 327 335
859 1 320 325 326 334
860 1 323 326 325 333
861 1 321 323 322 332
862 1 320 322 321 331
863 1 316 318 317 330
864 1 315 317 316 329
865 1 294 307 306 313
866 1 296 304 305 312
867 1 297 299 298 311
868 1 296 298 297 310
869 1 292 294 293 309
870 1 291 293 292 308
871 1 265 277 278 286
872 1 268 278 277 285
873 1 270 275 276 284
874 1 273 276 275 283
875 1 271 273 272 282
876 1 270 272 271 281
877 1 266 268 267 280
878 1 265 267 266 279
879 1 244 257 256 263
880 1 246 254 255 262
881 1 247 249 248 261
882 1 246 248 247 260
883 1 242 244 243 259
884 1 241 243 242 258
885 1 215 227 228 236
886 1 218 228 227 235
887 1 220 225 226 234
888 1 223 226 225 233
889 1 221 223 222 232
890 1 220 222 221 231
891 1 216 218 217 230
892 1 215 217 216 229
893 1 194 207 206 213
894 1 196 204 205 212
895 1 197 199 198 211
896 1 196 198 197 210
897 1 192 194 193 209
898 1 191 193 192 208
899 1 165 177 178 186
900 1 168 178 177 185
901 1 170 175 176 184
902 1 173 176 175 183
903 1 171 173 172 182
904 1 170 172 171 181
905 1 166 168 167 180
906 1 165 167 166 179
907 1 144 157 156 163
908 1 146 154 155 162
909 1 147 149 148 161
910 1 146 148 147 160
911 1 142 144 143 159
912 1 141 143 142 158
913 1 115 127 128 136
914 1 118 128 127 135
915 1 120 125 126 134
916 1 123 126 125 133
917 1 121 123 122 132
918 1 120 122 121 131
919 1 116 118 117 130
920 1 115 117 116 129
921 1 94 107 106 113
922 1 96 104 105 112
923 1 97 99 98 111
924 1 96 98 97 110
925 1 92 94 93 109
926 1 91 93 92 108
927 1 54 59 73 86
928 1 65 70 72 85
929 1 66 68 67 82
930 1 65 67 66 81
931 1 60 63 62 76
932 1 56 59 58 75
933 1 54 56 55 74
934 1 33 46 45 52
935 1 35 43 44 51
936 1 36 38 37 50
937 1 35 37 36 49
938 1 31 33 32 48
939 1 30 32 31 47
940 1 2 14 15 25
941 1 5 15 14 24
942 1 7 12 13 23
943 1 10 13 12 22
944 1 8 10 9 21
945 1 7 9 8 20
946 1 3 5 4 19
947 1 2 4 3 18
948 1 17 1 16 2
949 1 875 887 888 898
950 1 878 888 887 897
951 1 880 885 886 896
952 1 883 886 885 895
953 1 883 893 884 894
954 1 881 883 882 892
955 1 880 882 881 891
956 1 876 878 877 890
957 1 875 877 876 889
958 1 854 867 866 873
959 1 856 864 865 872
960 1 857 859 858 871
961 1 856 858 857 870
962 1 852 854 853 869
963 1 851 853 852 868
964 1 814 819 833 846
965 1 825 830 832 845
966 1 826 828 827 842
967 1 825 827 826 841
968 1 820 823 822 836
969 1 816 819 818 835
970 1 814 816 815 834
971 1 793 806 805 812
972 1 795 803 804 811
973 1 796 798 797 810
974 1 795 797 796 809
975 1 791 793 792 808
976 1 790 792 791 807
977 1 764 776 777 785
978 1 767 777 776 784
979 1 769 774 775 783
980 1 772 775 774 782
981 1 770 772 771 781
982 1 769 771 770 780
983 1 765 767 766 779
984 1 764 766 765 778
985 1 743 756 755 762
986 1 745 753 754 761
987 1 746 748 747 760
988 1 745 747 746 759
989 1 741 743 742 758
990 1 740 742 741 757
991 1 714 726 727 735
992 1 717 727 726 734
993 1 719 724 725 733
994 1 722 725 724 732
995 1 720 722 721 731
996 1 719 721 720 730
997 1 715 717 716 729
998 1 714 716 715 728
999 1 693 706 705 712
1000 1 695 703 704 711
1001 1 696 698 697 710
1002 1 695 697 696 709
1003 1 691 693 692 708
1004 1 690 692 691 707
1005 1 664 676 677 685
1006 1 667 677 676 684
1007 1 669 674 675 683
1008 1 672 675 674 682
1009 1 670 672 671 681
1010 1 669 671 670 680
1011 1 665 667 666 679
1012 1 664 666 665 678
1013 1 643 656 655 662
1014 1 645 653 654 661
1015 1 646 648 647 660
1016 1 645 647 646 659
1017 1 641 643 642 658
1018 1 640 642 641 657
1019 1 614 626 627 635
1020 1 617 627 626 634
1021 1 619 624 625 633
1022 1 622 625 624 632
1023 1 620 622 621 631
1024 1 619 621 620 630
1025 1 615 617 616 629
1026 1 614 616 615 628
1027 1 593 606 605 612
1028 1 595 603 604 611
1029 1 596 598 597 610
1030 1 595 597 596 609
1031 1 591 593 592 608
1032 1 590 592 591 607
1033 1 564 576 577 585
1034 1 567 577 576 584
1035 1 569 574 575 583
1036 1 572 575 574 582
1037 1 570 572 571 581
1038 1 569 571 570 580
1039 1 565 567 566 579
1040 1 564 566 565 578
1041 1 543 556 555 562
1042 1 545 553 554 561
1043 1 546 548 547 560
1044 1 545 547 546 559
1045 1 541 543 542 558
1046 1 540 542 541 557
1047 1 503 508 522 535
1048 1 514 519 521 534
1049 1 515 517 516 531
1050 1 514 516 515 530
1051 1 509 512 511 525
1052 1 505 508 507 524
1053 1 503 505 504 523
1054 1 482 495 494 501
1055 1 484 492 493 500
1056 1 485 487 486 499
1057 1 484 486 485 498
1058 1 480 482 481 497
1059 1 479 481 480 496
1060 1 451 463 464 474
1061 1 454 464 463 473
1062 1 456 461 462 472
1063 1 459 462 461 471
1064 1 457 459 458 470
1065 1 456 458 457 469
1066 1 452 454 453 468
1067 1 451 453 452 467
1068 1 451 465 450 466
1069 1 1324 1336 1337 1347
1070 1 1327 1337 1336 1346
1071 1 1329 1334 1335 1345
1072 1 1332 1335 1334 1344
1073 1 1332 1342 1333 1343
1074 1 1330 1332 1331 1341
1075 1 1329 1331 1330 1340
1076 1 1325 1327 1326 1339
1077 1 1324 1326 1325 1338
1078 1 1303 1316 1315 1322
1079 1 1305 1313 1314 1321
1080 1 1306 1308 1307 1320
1081 1 1305 1307 1306 1319
1082 1 1301 1303 1302 1318
1083 1 1300 1302 1301 1317
1084 1 1263 1268 1282 1295
1085 1 1274 1279 1281 1294
1086 1 1275 1277 1276 1291
1087 1 1274 1276 1275 1290
1088 1 1269 1272 1271 1285
1089 1 1265 1268 1267 1284
1090 1 1263 1265 1264 1283
1091 1 1242 1255 1254 1261
1092 1 1244 1252 1253 1260
1093 1 1245 1247 1246 1259
1094 1 1244 1246 1245 1258
1095 1 1240 1242 1241 1257
1096 1 1239 1241 1240 1256
1097 1 1213 1225 1226 1234
1098 1 1216 1226 1225 1233
1099 1 1218 1223 1224 1232
1100 1 1221 1224 1223 1231
1101 1 1219 1221 1220 1230
1102 1 1218 1220 1219 1229
1103 1 1214 1216 1215 1228
1104 1 1213 1215 1214 1227
1105 1 1192 1205 1204 1211
1106 1 1194 1202 1203 1210
1107 1 1195 1197 1196 1209
1108 1 1194 1196 1195 1208
1109 1 1190 1192 1191 1207
1110 1 1189 1191 1190 1206
1111 1 1163 1175 1176 1184
1112 1 1166 1176 1175 1183
1113 1 1168 1173 1174 1182
1114 1 1171 1174 1173 1181
1115 1 1169 1171 1170 1180
1116 1 1168 1170 1169 1179
1117 1 1164 1166 1165 1178
1118 1 1163 1165 1164 1177
1119 1 1142 1155 1154 1161
1120 1 1144 1152 1153 1160
1121 1 1145 1147 1146 1159
1122 1 1144 1146 1145 1158
1123 1 1140 1142 1141 1157
1124 1 1139 1141 1140 1156
1125 1 1113 1125 1126 1134
1126 1 1116 1126 1125 1133
1127 1 1118 1123 1124 1132
1128 1 1121 1124 1123 1131
1129 1 1119 1121 1120 1130
1130 1 1118 1120 1119 1129
1131 1 1114 1116 1115 1128
1132 1 1113 1115 1114 1127
1133 1 1092 1105 1104 1111
1134 1 1094 1102 1103 1110
1135 1 1095 1097 1096 1109
1136 1 1094 1096 1095 1108
1137 1 1090 1092 1091 1107
1138 1 1089 1091 1090 1106
1139 1 1063 1075 1076 1084
1140 1 1066 1076 1075 1083
1141 1 1068 1073 1074 1082
1142 1 1071 1074 1073 1081
1143 1 1069 1071 1070 1080
1144 1 1068 1070 1069 1079
1145 1 1064 1066 1065 1078
1146 1 1063 1065 1064 1077
1147 1 1042 1055 1054 1061
1148 1 1044 1052 1053 1060
1149 1 1045 1047 1046 1059
1150 1 1044 1046 1045 1058
1151 1 1040 1042 1041 1057
1152 1 1039 1041 1040 1056
1153 1 1013 1025 1026 1034
1154 1 1016 1026 1025 1033
1155 1 1018 1023 1024 1032
1156 1 1021 1024 1023 1031
1157 1 1019 1021 1020 1030
1158 1 1018 1020 1019 1029
1159 1 1014 1016 1015 1028
1160 1 1013 1015 1014 1027
1161 1 992 1005 1004 1011
1162 1 994 1002 1003 1010
1163 1 995 997 996 1009
1164 1 994 996 995 1008
1165 1 990 992 991 1007
1166 1 989 991 990 1006
1167 1 952 957 971 984
1168 1 963 968 970 983
1169 1 964 966 965 980
1170 1 963 965 964 979
1171 1 958 961 960 974
1172 1 954 957 956 973
1173 1 952 954 953 972
1174 1 931 944 943 950
1175 1 933 941 942 949
1176 1 934 936 935 948
1177 1 933 935 934 947
1178 1 929 931 930 946
1179 1 928 930 929 945
1180 1 900 912 913 923
1181 1 903 913 912 922
1182 1 905 910 911 921
1183 1 908 911 910 920
1184 1 906 908 907 919
1185 1 905 907 906 918
1186 1 901 903 902 917
1187 1 900 902 901 916
1188 1 900 914 899 915
1189 1 1773 1785 1786 1796
1190 1 1776 1786 1785 1795
1191 1 1778 1783 1784 1794
1192 1 1781 1784 1783 1793
1193 1 1781 1791 1782 1792
1194 1 1779 1781 1780 1790
1195 1 1778 1780 1779 1789
1196 1 1774 1776 1775 1788
1197 1 1773 1775 1774 1787
1198 1 1752 1765 1764 1771
1199 1 1754 1762 1763 1770
1200 1 1755 1757 1756 1769
1201 1 1754 1756 1755 1768
1202 1 1750 1752 1751 1767
1203 1 1749 1751 1750 1766
1204 1 1712 1717 1731 1744
1205 1 1723 1728 1730 1743
1206 1 1724 1726 1725 1740
1207 1 1723 1725 1724 1739
1208 1 1718 1721 1720 1734
1209 1 1714 1717 1716 1733
1210 1 1712 1714 1713 1732
1211 1 1691 1704 1703 1710
1212 1 1693 1701 1702 1709
1213 1 1694 1696 1695 1708
1214 1 1693 1695 1694 1707
1215 1 1689 1691 1690 1706
1216 1 1688 1690 1689 1705
1217 1 1662 1674 1675 1683
1218 1 1665 1675 1674 1682
1219 1 1667 1672 1673 1681
1220 1 1670 1673 1672 1680
1221 1 1668 1670 1669 1679
1222 1 1667 1669 1668 1678
1223 1 1663 1665 1664 1677
1224 1 1662 1664 1663 1676
1225 1 1641 1654 1653 1660
1226 1 1643 1651 1652 1659
1227 1 1644 1646 1645 1658
1228 1 1643 1645 1644 1657
1229 1 1639 1641 1640 1656
1230 1 1638 1640 1639 1655
1231 1 1612 1624 1625 1633
1232 1 1615 1625 1624 1632
1233 1 1617 1622 1623 1631
1234 1 1620 1623 1622 1630
1235 1 1618 1620 1619 1629
1236 1 1617 1619 1618 1628
1237 1 1613 1615 1614 1627
1238 1 1612 1614 1613 1626
1239 1 1591 1604 1603 1610
1240 1 1593 1601 1602 1609
1241 1 1594 1596 1595 1608
1242 1 1593 1595 1594 1607
1243 1 1589 1591 1590 1606
1244 1 1588 1590 1589 1605
1245 1 1562 1574 1575 1583
1246 1 1565 1575 1574 1582
1247 1 1567 1572 1573 1581
1248 1 1570 1573 1572 1580
1249 1 1568 1570 1569 1579
1250 1 1567 1569 1568 1578
1251 1 1563 1565 1564 1577
1252 1 1562 1564 1563 1576
1253 1 1541 1554 1553 1560
1254 1 1543 1551 1552 1559
1255 1 1544 1546 1545 1558
1256 1 1543 1545 1544 1557
1257 1 1539 1541 1540 1556
1258 1 1538 1540 1539 1555
1259 1 1512 1524 1525 1533
1260 1 1515 1525 1524 1532
1261 1 1517 1522 1523 1531
1262 1 1520 1523 1522 1530
1263 1 1518 1520 1519 1529
1264 1 1517 1519 1518 1528
1265 1 1513 1515 1514 1527
1266 1 1512 1514 1513 1526
1267 1 1491 1504 1503 1510
1268 1 1493 1501 1502 1509
1269 1 1494 1496 1495 1508
1270 1 1493 1495 1494 1507
1271 1 1489 1491 1490 1506
1272 1 1488 1490 1489 1505
1273 1 1462 1474 1475 1483
1274 1 1465 1475 1474 1482
1275 1 1467 1472 1473 1481
1276 1 1470 1473 1472 1480
1277 1 1468 1470 1469 1479
1278 1 1467 1469 1468 1478
1279 1 1463 1465 1464 1477
1280 1 1462 1464 1463 1476
1281 1 1441 1454 1453 1460
1282 1 1443 1451 1452 1459
1283 1 1444 1446 1445 1458
1284 1 1443 1445 1444 1457
1285 1 1439 1441 1440 1456
1286 1 1438 1440 1439 1455
1287 1 1401 1406 1420 1433
1288 1 1412 1417 1419 1432
1289 1 1413 1415 1414 1429
1290 1 1412 1414 1413 1428
1291 1 1407 1410 1409 1423
1292 1 1403 1406 1405 1422
1293 1 1401 1403 1402 1421
1294 1 1380 1393 1392 1399
1295 1 1382 1390 1391 1398
1296 1 1383 1385 1384 1397
1297 1 1382 1384 1383 1396
1298 1 1378 1380 1379 1395
1299 1 1377 1379 1378 1394
1300 1 1349 1361 1362 1372
1301 1 1352 1362 1361 1371
1302 1 1354 1359 1360 1370
1303 1 1357 1360 1359 1369
1304 1 1355 1357 1356 1368
1305 1 1354 1356 1355 1367
1306 1 1350 1352 1351 1366
1307 1 1349 1351 1350 1365
1308 1 1349 1363 1348 1364
1309 1 2222 2234 2235 2245
1310 1 2225 2235 2234 2244
1311 1 2227 2232 2233 2243
1312 1 2230 2233 2232 2242
1313 1 2230 2240 2231 2241
1314 1 2228 2230 2229 2239
1315 1 2227 2229 2228 2238
1316 1 2223 2225 2224 2237
1317 1 2222 2224 2223 2236
1318 1 2201 2214 2213 2220
1319 1 2203 2211 2212 2219
1320 1 2204 2206 2205 2218
1321 1 2203 2205 2204 2217
1322 1 2199 2201 2200 2216
1323 1 2198 2200 2199 2215
1324 1 2161 2166 2180 2193
1325 1 2172 2177 2179 2192
1326 1 2173 2175 2174 2189
1327 1 2172 2174 2173 2188
1328 1 2167 2170 2169 2183
1329 1 2163 2166 2165 2182
1330 1 2161 2163 2162 2181
1331 1 2140 2153 2152 2159
1332 1 2142 2150 2151 2158
1333 1 2143 2145 2144 2157
1334 1 2142 2144 2143 2156
1335 1 2138 2140 2139 2155
1336 1 2137 2139 2138 2154
1337 1 2111 2123 2124 2132
1338 1 2114 2124 2123 2131
1339 1 2116 2121 2122 2130
1340 1 2119 2122 2121 2129
1341 1 2117 2119 2118 2128
1342 1 2116 2118 2117 2127
1343 1 2112 2114 2113 2126
1344 1 2111 2113 2112 2125
1345 1 2090 2103 2102 2109
1346 1 2092 2100 2101 2108
1347 1 2093 2095 2094 2107
1348 1 2092 2094 2093 2106
1349 1 2088 2090 2089 2105
1350 1 2087 2089 2088 2104
1351 1 2061 2073 2074 2082
1352 1 2064 2074 2073 2081
1353 1 2066 2071 2072 2080
1354 1 2069 2072 2071 2079
1355 1 2067 2069 2068 2078
1356 1 2066 2068 2067 2077
1357 1 2062 2064 2063 2076
1358 1 2061 2063 2062 2075
1359 1 2040 2053 2052 2059
1360 1 2042 2050 2051 2058
1361 1 2043 2045 2044 2057
1362 1 2042 2044 2043 2056
1363 1 2038 2040 2039 2055
1364 1 2037 2039 2038 2054
1365 1 2011 2023 2024 2032
1366 1 2014 2024 2023 2031
1367 1 2016 2021 2022 2030
1368 1 2019 2022 2021 2029
1369 1 2017 2019 2018 2028
1370 1 2016 2018 2017 2027
1371 1 2012 2014 2013 2026
1372 1 2011 2013 2012 2025
1373 1 1990 2003 2002 2009
1374 1 1992 2000 2001 2008
1375 1 1993 1995 1994 2007
1376 1 1992 1994 1993 2006
1377 1 1988 1990 1989 2005
1378 1 1987 1989 1988 2004
1379 1 1961 1973 1974 1982
1380 1 1964 1974 1973 1981
1381 1 1966 1971 1972 1980
1382 1 1969 1972 1971 1979
1383 1 1967 1969 1968 1978
1384 1 1966 1968 1967 1977
1385 1 1962 1964 1963 1976
1386 1 1961 1963 1962 1975
1387 1 1940 1953 1952 1959
1388 1 1942 1950 1951 1958
1389 1 1943 1945 1944 1957
1390 1 1942 1944 1943 1956
1391 1 1938 1940 1939 1955
1392 1 1937 1939 1938 1954
1393 1 1911 1923 1924 1932
1394 1 1914 1924 1923 1931
1395 1 1916 1921 1922 1930
1396 1 1919 1922 1921 1929
1397 1 1917 1919 1918 1928
1398 1 1916 1918 1917 1927
1399 1 1912 1914 1913 1926
1400 1 1911 1913 1912 1925
1401 1 1890 1903 1902 1909
1402 1 1892 1900 1901 1908
1403 1 1893 1895 1894 1907
1404 1 1892 1894 1893 1906
1405 1 1888 1890 1889 1905
1406 1 1887 1889 1888 1904
1407 1 1850 1855 1869 1882
1408 1 1861 1866 1868 1881
1409 1 1862 1864 1863 1878
1410 1 1861 1863 1862 1877
1411 1 1856 1859 1858 1872
1412 1 1852 1855 1854 1871
1413 1 1850 1852 1851 1870
1414 1 1829 1842 1841 1848
1415 1 1831 1839 1840 1847
1416 1 1832 1834 1833 1846
1417 1 1831 1833 1832 1845
1418 1 1827 1829 1828 1844
1419 1 1826 1828 1827 1843
1420 1 1798 1810 1811 1821
1421 1 1801 1811 1810 1820
1422 1 1803 1808 1809 1819
1423 1 1806 1809 1808 1818
1424 1 1804 1806 1805 1817
1425 1 1803 1805 1804 1816
1426 1 1799 1801 1800 1815
1427 1 1798 1800 1799 1814
1428 1 1798 1812 1797 1813
1429 1 2671 2683 2684 2694
1430 1 2674 2684 2683 2693
1431 1 2676 2681 2682 2692
1432 1 2679 2682 2681 2691
1433 1 2679 2689 2680 2690
1434 1 2677 2679 2678 2688
1435 1 2676 2678 2677 2687
1436 1 2672 2674 2673 2686
1437 1 2671 2673 2672 2685
1438 1 2650 2663 2662 2669
1439 1 2652 2660 2661 2668
1440 1 2653 2655 2654 2667
1441 1 2652 2654 2653 2666
1442 1 2648 2650 2649 2665
1443 1 2647 2649 2648 2664
1444 1 2610 2615 2629 2642
1445 1 2621 2626 2628 2641
1446 1 2622 2624 2623 2638
1447 1 2621 2623 2622 2637
1448 1 2616 2619 2618 2632
1449 1 2612 2615 2614 2631
1450 1 2610 2612 2611 2630
1451 1 2589 2602 2601 2608
1452 1 2591 2599 2600 2607
1453 1 2592 2594 2593 2606
1454 1 2591 2593 2592 2605
1455 1 2587 2589 2588 2604
1456 1 2586 2588 2587 2603
1457 1 2560 2572 2573 2581
1458 1 2563 2573 2572 2580
1459 1 2565 2570 2571 2579
1460 1 2568 2571 2570 2578
1461 1 2566 2568 2567 2577
1462 1 2565 2567 2566 2576
1463 1 2561 2563 2562 2575
1464 1 2560 2562 2561 2574
1465 1 2539 2552 2551 2558
1466 1 2541 2549 2550 2557
1467 1 2542 2544 2543 2556
1468 1 2541 2543 2542 2555
1469 1 2537 2539 2538 2554
1470 1 2536 2538 2537 2553
1471 1 2510 2522 2523 2531
1472 1 2513 2523 2522 2530
1473 1 2515 2520 2521 2529
1474 1 2518 2521 2520 2528
1475 1 2516 2518 2517 2527
1476 1 2515 2517 2516 2526
1477 1 2511 2513 2512 2525
1478 1 2510 2512 2511 2524
1479 1 2489 2502 2501 2508
1480 1 2491 2499 2500 2507
1481 1 2492 2494 2493 2506
1482 1 2491 2493 2492 2505
1483 1 2487 2489 2488 2504
1484 1 2486 2488 2487 2503
1485 1 2460 2472 2473 2481
1486 1 2463 2473 2472 2480
1487 1 2465 2470 2471 2479
1488 1 2468 2471 2470 2478
1489 1 2466 2468 2467 2477
1490 1 2465 2467 2466 2476
1491 1 2461 2463 2462 2475
1492 1 2460 2462 2461 2474
1493 1 2439 2452 2451 2458
1494 1 2441 2449 2450 2457
1495 1 2442 2444 2443 2456
1496 1 2441 2443 2442 2455
1497 1 2437 2439 2438 2454
1498 1 2436 2438 2437 2453
1499 1 2410 2422 2423 2431
1500 1 2413 2423 2422 2430
1501 1 2415 2420 2421 2429
1502 1 2418 2421 2420 2428
1503 1 2416 2418 2417 2427
1504 1 2415 2417 2416 2426
1505 1 2411 2413 2412 2425
1506 1 2410 2412 2411 2424
1507 1 2389 2402 2401 2408
1508 1 2391 2399 2400 2407
1509 1 2392 2394 2393 2406
1510 1 2391 2393 2392 2405
1511 1 2387 2389 2388 2404
1512 1 2386 2388 2387 2403
1513 1 2360 2372 2373 2381
1514 1 2363 2373 2372 2380
1515 1 2365 2370 2371 2379
1516 1 2368 2371 2370 2378
1517 1 2366 2368 2367 2377
1518 1 2365 2367 2366 2376
1519 1 2361 2363 2362 2375
1520 1 2360 2362 2361 2374
1521 1 2339 2352 2351 2358
1522 1 2341 2349 2350 2357
1523 1 2342 2344 2343 2356
1524 1 2341 2343 2342 2355
1525 1 2337 2339 2338 2354
1526 1 2336 2338 2337 2353
1527 1 2299 2304 2318 2331
1528 1 2310 2315 2317 2330
1529 1 2311 2313 2312 2327
1530 1 2310 2312 2311 2326
1531 1 2305 2308 2307 2321
1532 1 2301 2304 2303 2320
1533 1 2299 2301 2300 2319
1534 1 2278 2291 2290 2297
1535 1 2280 2288 2289 2296
1536 1 2281 2283 2282 2295
1537 1 2280 2282 2281 2294
1538 1 2276 2278 2277 2293
1539 1 2275 2277 2276 2292
1540 1 2247 2259 2260 2270
1541 1 2250 2260 2259 2269
1542 1 2252 2257 2258 2268
1543 1 2255 2258 2257 2267
1544 1 2253 2255 2254 2266
1545 1 2252 2254 2253 2265
1546 1 2248 2250 2249 2264
1547 1 2247 2249 2248 2263
1548 1 2247 2261 2246 2262
